*HEADING
ex20 uniform n+ resistor bar (ETM UEL element test)
*USER ELEMENT, NODES=8, TYPE=U1, PROPERTIES=3, COORDINATES=3, VARIABLES=1, UNSYMM
1,2,3,4,5,6,7
*NODE
1, 0.0000000000e+00, 0.0000000000e+00, 0.0000000000e+00
2, 2.0000000000e-07, 0.0000000000e+00, 0.0000000000e+00
3, 4.0000000000e-07, 0.0000000000e+00, 0.0000000000e+00
4, 6.0000000000e-07, 0.0000000000e+00, 0.0000000000e+00
5, 8.0000000000e-07, 0.0000000000e+00, 0.0000000000e+00
6, 1.0000000000e-06, 0.0000000000e+00, 0.0000000000e+00
7, 1.2000000000e-06, 0.0000000000e+00, 0.0000000000e+00
8, 1.4000000000e-06, 0.0000000000e+00, 0.0000000000e+00
9, 1.6000000000e-06, 0.0000000000e+00, 0.0000000000e+00
10, 1.8000000000e-06, 0.0000000000e+00, 0.0000000000e+00
11, 2.0000000000e-06, 0.0000000000e+00, 0.0000000000e+00
12, 4.0000000000e-06, 0.0000000000e+00, 0.0000000000e+00
13, 6.0000000000e-06, 0.0000000000e+00, 0.0000000000e+00
14, 8.0000000000e-06, 0.0000000000e+00, 0.0000000000e+00
15, 1.0000000000e-05, 0.0000000000e+00, 0.0000000000e+00
16, 1.2000000000e-05, 0.0000000000e+00, 0.0000000000e+00
17, 1.4000000000e-05, 0.0000000000e+00, 0.0000000000e+00
18, 1.6000000000e-05, 0.0000000000e+00, 0.0000000000e+00
19, 1.8000000000e-05, 0.0000000000e+00, 0.0000000000e+00
20, 2.0000000000e-05, 0.0000000000e+00, 0.0000000000e+00
21, 2.9230770000e-05, 0.0000000000e+00, 0.0000000000e+00
22, 3.8461540000e-05, 0.0000000000e+00, 0.0000000000e+00
23, 4.7692310000e-05, 0.0000000000e+00, 0.0000000000e+00
24, 5.6923080000e-05, 0.0000000000e+00, 0.0000000000e+00
25, 6.6153850000e-05, 0.0000000000e+00, 0.0000000000e+00
26, 7.5384620000e-05, 0.0000000000e+00, 0.0000000000e+00
27, 8.4615380000e-05, 0.0000000000e+00, 0.0000000000e+00
28, 9.3846150000e-05, 0.0000000000e+00, 0.0000000000e+00
29, 1.0307692000e-04, 0.0000000000e+00, 0.0000000000e+00
30, 1.1230769000e-04, 0.0000000000e+00, 0.0000000000e+00
31, 1.2153846000e-04, 0.0000000000e+00, 0.0000000000e+00
32, 1.3076923000e-04, 0.0000000000e+00, 0.0000000000e+00
33, 1.4000000000e-04, 0.0000000000e+00, 0.0000000000e+00
34, 1.4923077000e-04, 0.0000000000e+00, 0.0000000000e+00
35, 1.5846154000e-04, 0.0000000000e+00, 0.0000000000e+00
36, 1.6769231000e-04, 0.0000000000e+00, 0.0000000000e+00
37, 1.7692308000e-04, 0.0000000000e+00, 0.0000000000e+00
38, 1.8615385000e-04, 0.0000000000e+00, 0.0000000000e+00
39, 1.9538462000e-04, 0.0000000000e+00, 0.0000000000e+00
40, 2.0461538000e-04, 0.0000000000e+00, 0.0000000000e+00
41, 2.1384615000e-04, 0.0000000000e+00, 0.0000000000e+00
42, 2.2307692000e-04, 0.0000000000e+00, 0.0000000000e+00
43, 2.3230769000e-04, 0.0000000000e+00, 0.0000000000e+00
44, 2.4153846000e-04, 0.0000000000e+00, 0.0000000000e+00
45, 2.5076923000e-04, 0.0000000000e+00, 0.0000000000e+00
46, 2.6000000000e-04, 0.0000000000e+00, 0.0000000000e+00
47, 2.6923077000e-04, 0.0000000000e+00, 0.0000000000e+00
48, 2.7846154000e-04, 0.0000000000e+00, 0.0000000000e+00
49, 2.8769231000e-04, 0.0000000000e+00, 0.0000000000e+00
50, 2.9692308000e-04, 0.0000000000e+00, 0.0000000000e+00
51, 3.0615385000e-04, 0.0000000000e+00, 0.0000000000e+00
52, 3.1538462000e-04, 0.0000000000e+00, 0.0000000000e+00
53, 3.2461538000e-04, 0.0000000000e+00, 0.0000000000e+00
54, 3.3384615000e-04, 0.0000000000e+00, 0.0000000000e+00
55, 3.4307692000e-04, 0.0000000000e+00, 0.0000000000e+00
56, 3.5230769000e-04, 0.0000000000e+00, 0.0000000000e+00
57, 3.6153846000e-04, 0.0000000000e+00, 0.0000000000e+00
58, 3.7076923000e-04, 0.0000000000e+00, 0.0000000000e+00
59, 3.8000000000e-04, 0.0000000000e+00, 0.0000000000e+00
60, 3.8200000000e-04, 0.0000000000e+00, 0.0000000000e+00
61, 3.8400000000e-04, 0.0000000000e+00, 0.0000000000e+00
62, 3.8600000000e-04, 0.0000000000e+00, 0.0000000000e+00
63, 3.8800000000e-04, 0.0000000000e+00, 0.0000000000e+00
64, 3.9000000000e-04, 0.0000000000e+00, 0.0000000000e+00
65, 3.9200000000e-04, 0.0000000000e+00, 0.0000000000e+00
66, 3.9400000000e-04, 0.0000000000e+00, 0.0000000000e+00
67, 3.9600000000e-04, 0.0000000000e+00, 0.0000000000e+00
68, 3.9800000000e-04, 0.0000000000e+00, 0.0000000000e+00
69, 3.9820000000e-04, 0.0000000000e+00, 0.0000000000e+00
70, 3.9840000000e-04, 0.0000000000e+00, 0.0000000000e+00
71, 3.9860000000e-04, 0.0000000000e+00, 0.0000000000e+00
72, 3.9880000000e-04, 0.0000000000e+00, 0.0000000000e+00
73, 3.9900000000e-04, 0.0000000000e+00, 0.0000000000e+00
74, 3.9920000000e-04, 0.0000000000e+00, 0.0000000000e+00
75, 3.9940000000e-04, 0.0000000000e+00, 0.0000000000e+00
76, 3.9960000000e-04, 0.0000000000e+00, 0.0000000000e+00
77, 3.9980000000e-04, 0.0000000000e+00, 0.0000000000e+00
78, 4.0000000000e-04, 0.0000000000e+00, 0.0000000000e+00
79, 0.0000000000e+00, 5.0000000000e-05, 0.0000000000e+00
80, 2.0000000000e-07, 5.0000000000e-05, 0.0000000000e+00
81, 4.0000000000e-07, 5.0000000000e-05, 0.0000000000e+00
82, 6.0000000000e-07, 5.0000000000e-05, 0.0000000000e+00
83, 8.0000000000e-07, 5.0000000000e-05, 0.0000000000e+00
84, 1.0000000000e-06, 5.0000000000e-05, 0.0000000000e+00
85, 1.2000000000e-06, 5.0000000000e-05, 0.0000000000e+00
86, 1.4000000000e-06, 5.0000000000e-05, 0.0000000000e+00
87, 1.6000000000e-06, 5.0000000000e-05, 0.0000000000e+00
88, 1.8000000000e-06, 5.0000000000e-05, 0.0000000000e+00
89, 2.0000000000e-06, 5.0000000000e-05, 0.0000000000e+00
90, 4.0000000000e-06, 5.0000000000e-05, 0.0000000000e+00
91, 6.0000000000e-06, 5.0000000000e-05, 0.0000000000e+00
92, 8.0000000000e-06, 5.0000000000e-05, 0.0000000000e+00
93, 1.0000000000e-05, 5.0000000000e-05, 0.0000000000e+00
94, 1.2000000000e-05, 5.0000000000e-05, 0.0000000000e+00
95, 1.4000000000e-05, 5.0000000000e-05, 0.0000000000e+00
96, 1.6000000000e-05, 5.0000000000e-05, 0.0000000000e+00
97, 1.8000000000e-05, 5.0000000000e-05, 0.0000000000e+00
98, 2.0000000000e-05, 5.0000000000e-05, 0.0000000000e+00
99, 2.9230770000e-05, 5.0000000000e-05, 0.0000000000e+00
100, 3.8461540000e-05, 5.0000000000e-05, 0.0000000000e+00
101, 4.7692310000e-05, 5.0000000000e-05, 0.0000000000e+00
102, 5.6923080000e-05, 5.0000000000e-05, 0.0000000000e+00
103, 6.6153850000e-05, 5.0000000000e-05, 0.0000000000e+00
104, 7.5384620000e-05, 5.0000000000e-05, 0.0000000000e+00
105, 8.4615380000e-05, 5.0000000000e-05, 0.0000000000e+00
106, 9.3846150000e-05, 5.0000000000e-05, 0.0000000000e+00
107, 1.0307692000e-04, 5.0000000000e-05, 0.0000000000e+00
108, 1.1230769000e-04, 5.0000000000e-05, 0.0000000000e+00
109, 1.2153846000e-04, 5.0000000000e-05, 0.0000000000e+00
110, 1.3076923000e-04, 5.0000000000e-05, 0.0000000000e+00
111, 1.4000000000e-04, 5.0000000000e-05, 0.0000000000e+00
112, 1.4923077000e-04, 5.0000000000e-05, 0.0000000000e+00
113, 1.5846154000e-04, 5.0000000000e-05, 0.0000000000e+00
114, 1.6769231000e-04, 5.0000000000e-05, 0.0000000000e+00
115, 1.7692308000e-04, 5.0000000000e-05, 0.0000000000e+00
116, 1.8615385000e-04, 5.0000000000e-05, 0.0000000000e+00
117, 1.9538462000e-04, 5.0000000000e-05, 0.0000000000e+00
118, 2.0461538000e-04, 5.0000000000e-05, 0.0000000000e+00
119, 2.1384615000e-04, 5.0000000000e-05, 0.0000000000e+00
120, 2.2307692000e-04, 5.0000000000e-05, 0.0000000000e+00
121, 2.3230769000e-04, 5.0000000000e-05, 0.0000000000e+00
122, 2.4153846000e-04, 5.0000000000e-05, 0.0000000000e+00
123, 2.5076923000e-04, 5.0000000000e-05, 0.0000000000e+00
124, 2.6000000000e-04, 5.0000000000e-05, 0.0000000000e+00
125, 2.6923077000e-04, 5.0000000000e-05, 0.0000000000e+00
126, 2.7846154000e-04, 5.0000000000e-05, 0.0000000000e+00
127, 2.8769231000e-04, 5.0000000000e-05, 0.0000000000e+00
128, 2.9692308000e-04, 5.0000000000e-05, 0.0000000000e+00
129, 3.0615385000e-04, 5.0000000000e-05, 0.0000000000e+00
130, 3.1538462000e-04, 5.0000000000e-05, 0.0000000000e+00
131, 3.2461538000e-04, 5.0000000000e-05, 0.0000000000e+00
132, 3.3384615000e-04, 5.0000000000e-05, 0.0000000000e+00
133, 3.4307692000e-04, 5.0000000000e-05, 0.0000000000e+00
134, 3.5230769000e-04, 5.0000000000e-05, 0.0000000000e+00
135, 3.6153846000e-04, 5.0000000000e-05, 0.0000000000e+00
136, 3.7076923000e-04, 5.0000000000e-05, 0.0000000000e+00
137, 3.8000000000e-04, 5.0000000000e-05, 0.0000000000e+00
138, 3.8200000000e-04, 5.0000000000e-05, 0.0000000000e+00
139, 3.8400000000e-04, 5.0000000000e-05, 0.0000000000e+00
140, 3.8600000000e-04, 5.0000000000e-05, 0.0000000000e+00
141, 3.8800000000e-04, 5.0000000000e-05, 0.0000000000e+00
142, 3.9000000000e-04, 5.0000000000e-05, 0.0000000000e+00
143, 3.9200000000e-04, 5.0000000000e-05, 0.0000000000e+00
144, 3.9400000000e-04, 5.0000000000e-05, 0.0000000000e+00
145, 3.9600000000e-04, 5.0000000000e-05, 0.0000000000e+00
146, 3.9800000000e-04, 5.0000000000e-05, 0.0000000000e+00
147, 3.9820000000e-04, 5.0000000000e-05, 0.0000000000e+00
148, 3.9840000000e-04, 5.0000000000e-05, 0.0000000000e+00
149, 3.9860000000e-04, 5.0000000000e-05, 0.0000000000e+00
150, 3.9880000000e-04, 5.0000000000e-05, 0.0000000000e+00
151, 3.9900000000e-04, 5.0000000000e-05, 0.0000000000e+00
152, 3.9920000000e-04, 5.0000000000e-05, 0.0000000000e+00
153, 3.9940000000e-04, 5.0000000000e-05, 0.0000000000e+00
154, 3.9960000000e-04, 5.0000000000e-05, 0.0000000000e+00
155, 3.9980000000e-04, 5.0000000000e-05, 0.0000000000e+00
156, 4.0000000000e-04, 5.0000000000e-05, 0.0000000000e+00
157, 0.0000000000e+00, 0.0000000000e+00, 5.0000000000e-05
158, 2.0000000000e-07, 0.0000000000e+00, 5.0000000000e-05
159, 4.0000000000e-07, 0.0000000000e+00, 5.0000000000e-05
160, 6.0000000000e-07, 0.0000000000e+00, 5.0000000000e-05
161, 8.0000000000e-07, 0.0000000000e+00, 5.0000000000e-05
162, 1.0000000000e-06, 0.0000000000e+00, 5.0000000000e-05
163, 1.2000000000e-06, 0.0000000000e+00, 5.0000000000e-05
164, 1.4000000000e-06, 0.0000000000e+00, 5.0000000000e-05
165, 1.6000000000e-06, 0.0000000000e+00, 5.0000000000e-05
166, 1.8000000000e-06, 0.0000000000e+00, 5.0000000000e-05
167, 2.0000000000e-06, 0.0000000000e+00, 5.0000000000e-05
168, 4.0000000000e-06, 0.0000000000e+00, 5.0000000000e-05
169, 6.0000000000e-06, 0.0000000000e+00, 5.0000000000e-05
170, 8.0000000000e-06, 0.0000000000e+00, 5.0000000000e-05
171, 1.0000000000e-05, 0.0000000000e+00, 5.0000000000e-05
172, 1.2000000000e-05, 0.0000000000e+00, 5.0000000000e-05
173, 1.4000000000e-05, 0.0000000000e+00, 5.0000000000e-05
174, 1.6000000000e-05, 0.0000000000e+00, 5.0000000000e-05
175, 1.8000000000e-05, 0.0000000000e+00, 5.0000000000e-05
176, 2.0000000000e-05, 0.0000000000e+00, 5.0000000000e-05
177, 2.9230770000e-05, 0.0000000000e+00, 5.0000000000e-05
178, 3.8461540000e-05, 0.0000000000e+00, 5.0000000000e-05
179, 4.7692310000e-05, 0.0000000000e+00, 5.0000000000e-05
180, 5.6923080000e-05, 0.0000000000e+00, 5.0000000000e-05
181, 6.6153850000e-05, 0.0000000000e+00, 5.0000000000e-05
182, 7.5384620000e-05, 0.0000000000e+00, 5.0000000000e-05
183, 8.4615380000e-05, 0.0000000000e+00, 5.0000000000e-05
184, 9.3846150000e-05, 0.0000000000e+00, 5.0000000000e-05
185, 1.0307692000e-04, 0.0000000000e+00, 5.0000000000e-05
186, 1.1230769000e-04, 0.0000000000e+00, 5.0000000000e-05
187, 1.2153846000e-04, 0.0000000000e+00, 5.0000000000e-05
188, 1.3076923000e-04, 0.0000000000e+00, 5.0000000000e-05
189, 1.4000000000e-04, 0.0000000000e+00, 5.0000000000e-05
190, 1.4923077000e-04, 0.0000000000e+00, 5.0000000000e-05
191, 1.5846154000e-04, 0.0000000000e+00, 5.0000000000e-05
192, 1.6769231000e-04, 0.0000000000e+00, 5.0000000000e-05
193, 1.7692308000e-04, 0.0000000000e+00, 5.0000000000e-05
194, 1.8615385000e-04, 0.0000000000e+00, 5.0000000000e-05
195, 1.9538462000e-04, 0.0000000000e+00, 5.0000000000e-05
196, 2.0461538000e-04, 0.0000000000e+00, 5.0000000000e-05
197, 2.1384615000e-04, 0.0000000000e+00, 5.0000000000e-05
198, 2.2307692000e-04, 0.0000000000e+00, 5.0000000000e-05
199, 2.3230769000e-04, 0.0000000000e+00, 5.0000000000e-05
200, 2.4153846000e-04, 0.0000000000e+00, 5.0000000000e-05
201, 2.5076923000e-04, 0.0000000000e+00, 5.0000000000e-05
202, 2.6000000000e-04, 0.0000000000e+00, 5.0000000000e-05
203, 2.6923077000e-04, 0.0000000000e+00, 5.0000000000e-05
204, 2.7846154000e-04, 0.0000000000e+00, 5.0000000000e-05
205, 2.8769231000e-04, 0.0000000000e+00, 5.0000000000e-05
206, 2.9692308000e-04, 0.0000000000e+00, 5.0000000000e-05
207, 3.0615385000e-04, 0.0000000000e+00, 5.0000000000e-05
208, 3.1538462000e-04, 0.0000000000e+00, 5.0000000000e-05
209, 3.2461538000e-04, 0.0000000000e+00, 5.0000000000e-05
210, 3.3384615000e-04, 0.0000000000e+00, 5.0000000000e-05
211, 3.4307692000e-04, 0.0000000000e+00, 5.0000000000e-05
212, 3.5230769000e-04, 0.0000000000e+00, 5.0000000000e-05
213, 3.6153846000e-04, 0.0000000000e+00, 5.0000000000e-05
214, 3.7076923000e-04, 0.0000000000e+00, 5.0000000000e-05
215, 3.8000000000e-04, 0.0000000000e+00, 5.0000000000e-05
216, 3.8200000000e-04, 0.0000000000e+00, 5.0000000000e-05
217, 3.8400000000e-04, 0.0000000000e+00, 5.0000000000e-05
218, 3.8600000000e-04, 0.0000000000e+00, 5.0000000000e-05
219, 3.8800000000e-04, 0.0000000000e+00, 5.0000000000e-05
220, 3.9000000000e-04, 0.0000000000e+00, 5.0000000000e-05
221, 3.9200000000e-04, 0.0000000000e+00, 5.0000000000e-05
222, 3.9400000000e-04, 0.0000000000e+00, 5.0000000000e-05
223, 3.9600000000e-04, 0.0000000000e+00, 5.0000000000e-05
224, 3.9800000000e-04, 0.0000000000e+00, 5.0000000000e-05
225, 3.9820000000e-04, 0.0000000000e+00, 5.0000000000e-05
226, 3.9840000000e-04, 0.0000000000e+00, 5.0000000000e-05
227, 3.9860000000e-04, 0.0000000000e+00, 5.0000000000e-05
228, 3.9880000000e-04, 0.0000000000e+00, 5.0000000000e-05
229, 3.9900000000e-04, 0.0000000000e+00, 5.0000000000e-05
230, 3.9920000000e-04, 0.0000000000e+00, 5.0000000000e-05
231, 3.9940000000e-04, 0.0000000000e+00, 5.0000000000e-05
232, 3.9960000000e-04, 0.0000000000e+00, 5.0000000000e-05
233, 3.9980000000e-04, 0.0000000000e+00, 5.0000000000e-05
234, 4.0000000000e-04, 0.0000000000e+00, 5.0000000000e-05
235, 0.0000000000e+00, 5.0000000000e-05, 5.0000000000e-05
236, 2.0000000000e-07, 5.0000000000e-05, 5.0000000000e-05
237, 4.0000000000e-07, 5.0000000000e-05, 5.0000000000e-05
238, 6.0000000000e-07, 5.0000000000e-05, 5.0000000000e-05
239, 8.0000000000e-07, 5.0000000000e-05, 5.0000000000e-05
240, 1.0000000000e-06, 5.0000000000e-05, 5.0000000000e-05
241, 1.2000000000e-06, 5.0000000000e-05, 5.0000000000e-05
242, 1.4000000000e-06, 5.0000000000e-05, 5.0000000000e-05
243, 1.6000000000e-06, 5.0000000000e-05, 5.0000000000e-05
244, 1.8000000000e-06, 5.0000000000e-05, 5.0000000000e-05
245, 2.0000000000e-06, 5.0000000000e-05, 5.0000000000e-05
246, 4.0000000000e-06, 5.0000000000e-05, 5.0000000000e-05
247, 6.0000000000e-06, 5.0000000000e-05, 5.0000000000e-05
248, 8.0000000000e-06, 5.0000000000e-05, 5.0000000000e-05
249, 1.0000000000e-05, 5.0000000000e-05, 5.0000000000e-05
250, 1.2000000000e-05, 5.0000000000e-05, 5.0000000000e-05
251, 1.4000000000e-05, 5.0000000000e-05, 5.0000000000e-05
252, 1.6000000000e-05, 5.0000000000e-05, 5.0000000000e-05
253, 1.8000000000e-05, 5.0000000000e-05, 5.0000000000e-05
254, 2.0000000000e-05, 5.0000000000e-05, 5.0000000000e-05
255, 2.9230770000e-05, 5.0000000000e-05, 5.0000000000e-05
256, 3.8461540000e-05, 5.0000000000e-05, 5.0000000000e-05
257, 4.7692310000e-05, 5.0000000000e-05, 5.0000000000e-05
258, 5.6923080000e-05, 5.0000000000e-05, 5.0000000000e-05
259, 6.6153850000e-05, 5.0000000000e-05, 5.0000000000e-05
260, 7.5384620000e-05, 5.0000000000e-05, 5.0000000000e-05
261, 8.4615380000e-05, 5.0000000000e-05, 5.0000000000e-05
262, 9.3846150000e-05, 5.0000000000e-05, 5.0000000000e-05
263, 1.0307692000e-04, 5.0000000000e-05, 5.0000000000e-05
264, 1.1230769000e-04, 5.0000000000e-05, 5.0000000000e-05
265, 1.2153846000e-04, 5.0000000000e-05, 5.0000000000e-05
266, 1.3076923000e-04, 5.0000000000e-05, 5.0000000000e-05
267, 1.4000000000e-04, 5.0000000000e-05, 5.0000000000e-05
268, 1.4923077000e-04, 5.0000000000e-05, 5.0000000000e-05
269, 1.5846154000e-04, 5.0000000000e-05, 5.0000000000e-05
270, 1.6769231000e-04, 5.0000000000e-05, 5.0000000000e-05
271, 1.7692308000e-04, 5.0000000000e-05, 5.0000000000e-05
272, 1.8615385000e-04, 5.0000000000e-05, 5.0000000000e-05
273, 1.9538462000e-04, 5.0000000000e-05, 5.0000000000e-05
274, 2.0461538000e-04, 5.0000000000e-05, 5.0000000000e-05
275, 2.1384615000e-04, 5.0000000000e-05, 5.0000000000e-05
276, 2.2307692000e-04, 5.0000000000e-05, 5.0000000000e-05
277, 2.3230769000e-04, 5.0000000000e-05, 5.0000000000e-05
278, 2.4153846000e-04, 5.0000000000e-05, 5.0000000000e-05
279, 2.5076923000e-04, 5.0000000000e-05, 5.0000000000e-05
280, 2.6000000000e-04, 5.0000000000e-05, 5.0000000000e-05
281, 2.6923077000e-04, 5.0000000000e-05, 5.0000000000e-05
282, 2.7846154000e-04, 5.0000000000e-05, 5.0000000000e-05
283, 2.8769231000e-04, 5.0000000000e-05, 5.0000000000e-05
284, 2.9692308000e-04, 5.0000000000e-05, 5.0000000000e-05
285, 3.0615385000e-04, 5.0000000000e-05, 5.0000000000e-05
286, 3.1538462000e-04, 5.0000000000e-05, 5.0000000000e-05
287, 3.2461538000e-04, 5.0000000000e-05, 5.0000000000e-05
288, 3.3384615000e-04, 5.0000000000e-05, 5.0000000000e-05
289, 3.4307692000e-04, 5.0000000000e-05, 5.0000000000e-05
290, 3.5230769000e-04, 5.0000000000e-05, 5.0000000000e-05
291, 3.6153846000e-04, 5.0000000000e-05, 5.0000000000e-05
292, 3.7076923000e-04, 5.0000000000e-05, 5.0000000000e-05
293, 3.8000000000e-04, 5.0000000000e-05, 5.0000000000e-05
294, 3.8200000000e-04, 5.0000000000e-05, 5.0000000000e-05
295, 3.8400000000e-04, 5.0000000000e-05, 5.0000000000e-05
296, 3.8600000000e-04, 5.0000000000e-05, 5.0000000000e-05
297, 3.8800000000e-04, 5.0000000000e-05, 5.0000000000e-05
298, 3.9000000000e-04, 5.0000000000e-05, 5.0000000000e-05
299, 3.9200000000e-04, 5.0000000000e-05, 5.0000000000e-05
300, 3.9400000000e-04, 5.0000000000e-05, 5.0000000000e-05
301, 3.9600000000e-04, 5.0000000000e-05, 5.0000000000e-05
302, 3.9800000000e-04, 5.0000000000e-05, 5.0000000000e-05
303, 3.9820000000e-04, 5.0000000000e-05, 5.0000000000e-05
304, 3.9840000000e-04, 5.0000000000e-05, 5.0000000000e-05
305, 3.9860000000e-04, 5.0000000000e-05, 5.0000000000e-05
306, 3.9880000000e-04, 5.0000000000e-05, 5.0000000000e-05
307, 3.9900000000e-04, 5.0000000000e-05, 5.0000000000e-05
308, 3.9920000000e-04, 5.0000000000e-05, 5.0000000000e-05
309, 3.9940000000e-04, 5.0000000000e-05, 5.0000000000e-05
310, 3.9960000000e-04, 5.0000000000e-05, 5.0000000000e-05
311, 3.9980000000e-04, 5.0000000000e-05, 5.0000000000e-05
312, 4.0000000000e-04, 5.0000000000e-05, 5.0000000000e-05
*ELEMENT, TYPE=U1, ELSET=EBAR
1, 1, 2, 80, 79, 157, 158, 236, 235
2, 2, 3, 81, 80, 158, 159, 237, 236
3, 3, 4, 82, 81, 159, 160, 238, 237
4, 4, 5, 83, 82, 160, 161, 239, 238
5, 5, 6, 84, 83, 161, 162, 240, 239
6, 6, 7, 85, 84, 162, 163, 241, 240
7, 7, 8, 86, 85, 163, 164, 242, 241
8, 8, 9, 87, 86, 164, 165, 243, 242
9, 9, 10, 88, 87, 165, 166, 244, 243
10, 10, 11, 89, 88, 166, 167, 245, 244
11, 11, 12, 90, 89, 167, 168, 246, 245
12, 12, 13, 91, 90, 168, 169, 247, 246
13, 13, 14, 92, 91, 169, 170, 248, 247
14, 14, 15, 93, 92, 170, 171, 249, 248
15, 15, 16, 94, 93, 171, 172, 250, 249
16, 16, 17, 95, 94, 172, 173, 251, 250
17, 17, 18, 96, 95, 173, 174, 252, 251
18, 18, 19, 97, 96, 174, 175, 253, 252
19, 19, 20, 98, 97, 175, 176, 254, 253
20, 20, 21, 99, 98, 176, 177, 255, 254
21, 21, 22, 100, 99, 177, 178, 256, 255
22, 22, 23, 101, 100, 178, 179, 257, 256
23, 23, 24, 102, 101, 179, 180, 258, 257
24, 24, 25, 103, 102, 180, 181, 259, 258
25, 25, 26, 104, 103, 181, 182, 260, 259
26, 26, 27, 105, 104, 182, 183, 261, 260
27, 27, 28, 106, 105, 183, 184, 262, 261
28, 28, 29, 107, 106, 184, 185, 263, 262
29, 29, 30, 108, 107, 185, 186, 264, 263
30, 30, 31, 109, 108, 186, 187, 265, 264
31, 31, 32, 110, 109, 187, 188, 266, 265
32, 32, 33, 111, 110, 188, 189, 267, 266
33, 33, 34, 112, 111, 189, 190, 268, 267
34, 34, 35, 113, 112, 190, 191, 269, 268
35, 35, 36, 114, 113, 191, 192, 270, 269
36, 36, 37, 115, 114, 192, 193, 271, 270
37, 37, 38, 116, 115, 193, 194, 272, 271
38, 38, 39, 117, 116, 194, 195, 273, 272
39, 39, 40, 118, 117, 195, 196, 274, 273
40, 40, 41, 119, 118, 196, 197, 275, 274
41, 41, 42, 120, 119, 197, 198, 276, 275
42, 42, 43, 121, 120, 198, 199, 277, 276
43, 43, 44, 122, 121, 199, 200, 278, 277
44, 44, 45, 123, 122, 200, 201, 279, 278
45, 45, 46, 124, 123, 201, 202, 280, 279
46, 46, 47, 125, 124, 202, 203, 281, 280
47, 47, 48, 126, 125, 203, 204, 282, 281
48, 48, 49, 127, 126, 204, 205, 283, 282
49, 49, 50, 128, 127, 205, 206, 284, 283
50, 50, 51, 129, 128, 206, 207, 285, 284
51, 51, 52, 130, 129, 207, 208, 286, 285
52, 52, 53, 131, 130, 208, 209, 287, 286
53, 53, 54, 132, 131, 209, 210, 288, 287
54, 54, 55, 133, 132, 210, 211, 289, 288
55, 55, 56, 134, 133, 211, 212, 290, 289
56, 56, 57, 135, 134, 212, 213, 291, 290
57, 57, 58, 136, 135, 213, 214, 292, 291
58, 58, 59, 137, 136, 214, 215, 293, 292
59, 59, 60, 138, 137, 215, 216, 294, 293
60, 60, 61, 139, 138, 216, 217, 295, 294
61, 61, 62, 140, 139, 217, 218, 296, 295
62, 62, 63, 141, 140, 218, 219, 297, 296
63, 63, 64, 142, 141, 219, 220, 298, 297
64, 64, 65, 143, 142, 220, 221, 299, 298
65, 65, 66, 144, 143, 221, 222, 300, 299
66, 66, 67, 145, 144, 222, 223, 301, 300
67, 67, 68, 146, 145, 223, 224, 302, 301
68, 68, 69, 147, 146, 224, 225, 303, 302
69, 69, 70, 148, 147, 225, 226, 304, 303
70, 70, 71, 149, 148, 226, 227, 305, 304
71, 71, 72, 150, 149, 227, 228, 306, 305
72, 72, 73, 151, 150, 228, 229, 307, 306
73, 73, 74, 152, 151, 229, 230, 308, 307
74, 74, 75, 153, 152, 230, 231, 309, 308
75, 75, 76, 154, 153, 231, 232, 310, 309
76, 76, 77, 155, 154, 232, 233, 311, 310
77, 77, 78, 156, 155, 233, 234, 312, 311
*UEL PROPERTY, ELSET=EBAR
1, 1.000000e+09, 1.0
*NSET, NSET=XL
1, 79, 157, 235
*NSET, NSET=XR
78, 156, 234, 312
*NSET, NSET=NALL, GENERATE
1, 312, 1
*AMPLITUDE, NAME=DOPRAMP, TIME=TOTAL TIME
0.000000e+00, 0.00000000e+00
1.000000e-04, 5.55555556e-01
1.467799e-04, 5.74074074e-01
2.154435e-04, 5.92592593e-01
3.162278e-04, 6.11111111e-01
4.641589e-04, 6.29629630e-01
6.812921e-04, 6.48148148e-01
1.000000e-03, 6.66666667e-01
1.467799e-03, 6.85185185e-01
2.154435e-03, 7.03703704e-01
3.162278e-03, 7.22222222e-01
4.641589e-03, 7.40740741e-01
6.812921e-03, 7.59259259e-01
1.000000e-02, 7.77777778e-01
1.467799e-02, 7.96296296e-01
2.154435e-02, 8.14814815e-01
3.162278e-02, 8.33333333e-01
4.641589e-02, 8.51851852e-01
6.812921e-02, 8.70370370e-01
1.000000e-01, 8.88888889e-01
1.467799e-01, 9.07407407e-01
2.154435e-01, 9.25925926e-01
3.162278e-01, 9.44444444e-01
4.641589e-01, 9.62962963e-01
6.812921e-01, 9.81481481e-01
1.000000e+00, 1.00000000e+00
*STEP, INC=400, UNSYMM=YES
*STATIC
0.0001, 1.0, 1e-9, 0.05
*CONTROLS, PARAMETERS=FIELD
1e-4,,,,,,,
*BOUNDARY, AMPLITUDE=DOPRAMP
XL, 1, 1, 2.07232658e+01
XR, 1, 1, 2.07232658e+01
*BOUNDARY
XL, 2, 2, 0.
XR, 2, 2, 0.00000000e+00
NALL, 3, 3, 0.
XL, 4, 4, 0.
XR, 4, 4, 0.
XL, 5, 7, 0.
*NODE PRINT, NSET=NALL, FREQUENCY=999
U
*NODE PRINT, NSET=XR, FREQUENCY=999, TOTALS=YES
RF
*NODE PRINT, NSET=XL, FREQUENCY=999, TOTALS=YES
RF
*END STEP
*STEP, INC=400, UNSYMM=YES
*STATIC
0.125, 1.0, 1e-9, 0.125
*CONTROLS, PARAMETERS=FIELD
1e-4,,,,,,,
*BOUNDARY
XL, 1, 1, 2.07232658e+01
XR, 1, 1, 2.45917378e+01
*BOUNDARY
XL, 2, 2, 0.
XR, 2, 2, 3.86847195e+00
NALL, 3, 3, 0.
XL, 4, 4, 0.
XR, 4, 4, 0.
XL, 5, 7, 0.
*END STEP
*STEP, INC=400, UNSYMM=YES
*STATIC
0.25, 1.0, 1e-9, 0.25
*CONTROLS, PARAMETERS=FIELD
1e-4,,,,,,,
*BOUNDARY
XL, 1, 1, 2.07232658e+01
XR, 1, 1, 2.45917378e+01
*BOUNDARY
XL, 2, 2, 0.
XR, 2, 2, 3.86847195e+00
NALL, 3, 3, 0.
XL, 4, 4, 0.
XR, 4, 4, 0.
XL, 5, 7, 0.
*END STEP
