*HEADING
ex18 3D NMOS electro-thermal UEL (monolithic)
*USER ELEMENT, NODES=8, TYPE=U1, PROPERTIES=3, COORDINATES=3, VARIABLES=1, UNSYMM
1,2,3,4
*NODE
1, 1.0000000000e-04, 0.0000000000e+00, -1.0000000000e-06
2, 1.0200000000e-04, 0.0000000000e+00, -1.0000000000e-06
3, 1.0400000000e-04, 0.0000000000e+00, -1.0000000000e-06
4, 1.0600000000e-04, 0.0000000000e+00, -1.0000000000e-06
5, 1.0800000000e-04, 0.0000000000e+00, -1.0000000000e-06
6, 1.1000000000e-04, 0.0000000000e+00, -1.0000000000e-06
7, 1.3000000000e-04, 0.0000000000e+00, -1.0000000000e-06
8, 1.5000000000e-04, 0.0000000000e+00, -1.0000000000e-06
9, 1.7000000000e-04, 0.0000000000e+00, -1.0000000000e-06
10, 1.9000000000e-04, 0.0000000000e+00, -1.0000000000e-06
11, 2.1000000000e-04, 0.0000000000e+00, -1.0000000000e-06
12, 2.3000000000e-04, 0.0000000000e+00, -1.0000000000e-06
13, 2.5000000000e-04, 0.0000000000e+00, -1.0000000000e-06
14, 2.7000000000e-04, 0.0000000000e+00, -1.0000000000e-06
15, 2.9000000000e-04, 0.0000000000e+00, -1.0000000000e-06
16, 3.1000000000e-04, 0.0000000000e+00, -1.0000000000e-06
17, 3.3000000000e-04, 0.0000000000e+00, -1.0000000000e-06
18, 3.5000000000e-04, 0.0000000000e+00, -1.0000000000e-06
19, 3.7000000000e-04, 0.0000000000e+00, -1.0000000000e-06
20, 3.9000000000e-04, 0.0000000000e+00, -1.0000000000e-06
21, 4.1000000000e-04, 0.0000000000e+00, -1.0000000000e-06
22, 4.3000000000e-04, 0.0000000000e+00, -1.0000000000e-06
23, 4.5000000000e-04, 0.0000000000e+00, -1.0000000000e-06
24, 4.7000000000e-04, 0.0000000000e+00, -1.0000000000e-06
25, 4.9000000000e-04, 0.0000000000e+00, -1.0000000000e-06
26, 4.9200000000e-04, 0.0000000000e+00, -1.0000000000e-06
27, 4.9400000000e-04, 0.0000000000e+00, -1.0000000000e-06
28, 4.9600000000e-04, 0.0000000000e+00, -1.0000000000e-06
29, 4.9800000000e-04, 0.0000000000e+00, -1.0000000000e-06
30, 5.0000000000e-04, 0.0000000000e+00, -1.0000000000e-06
31, 1.0000000000e-04, 5.0000000000e-05, -1.0000000000e-06
32, 1.0200000000e-04, 5.0000000000e-05, -1.0000000000e-06
33, 1.0400000000e-04, 5.0000000000e-05, -1.0000000000e-06
34, 1.0600000000e-04, 5.0000000000e-05, -1.0000000000e-06
35, 1.0800000000e-04, 5.0000000000e-05, -1.0000000000e-06
36, 1.1000000000e-04, 5.0000000000e-05, -1.0000000000e-06
37, 1.3000000000e-04, 5.0000000000e-05, -1.0000000000e-06
38, 1.5000000000e-04, 5.0000000000e-05, -1.0000000000e-06
39, 1.7000000000e-04, 5.0000000000e-05, -1.0000000000e-06
40, 1.9000000000e-04, 5.0000000000e-05, -1.0000000000e-06
41, 2.1000000000e-04, 5.0000000000e-05, -1.0000000000e-06
42, 2.3000000000e-04, 5.0000000000e-05, -1.0000000000e-06
43, 2.5000000000e-04, 5.0000000000e-05, -1.0000000000e-06
44, 2.7000000000e-04, 5.0000000000e-05, -1.0000000000e-06
45, 2.9000000000e-04, 5.0000000000e-05, -1.0000000000e-06
46, 3.1000000000e-04, 5.0000000000e-05, -1.0000000000e-06
47, 3.3000000000e-04, 5.0000000000e-05, -1.0000000000e-06
48, 3.5000000000e-04, 5.0000000000e-05, -1.0000000000e-06
49, 3.7000000000e-04, 5.0000000000e-05, -1.0000000000e-06
50, 3.9000000000e-04, 5.0000000000e-05, -1.0000000000e-06
51, 4.1000000000e-04, 5.0000000000e-05, -1.0000000000e-06
52, 4.3000000000e-04, 5.0000000000e-05, -1.0000000000e-06
53, 4.5000000000e-04, 5.0000000000e-05, -1.0000000000e-06
54, 4.7000000000e-04, 5.0000000000e-05, -1.0000000000e-06
55, 4.9000000000e-04, 5.0000000000e-05, -1.0000000000e-06
56, 4.9200000000e-04, 5.0000000000e-05, -1.0000000000e-06
57, 4.9400000000e-04, 5.0000000000e-05, -1.0000000000e-06
58, 4.9600000000e-04, 5.0000000000e-05, -1.0000000000e-06
59, 4.9800000000e-04, 5.0000000000e-05, -1.0000000000e-06
60, 5.0000000000e-04, 5.0000000000e-05, -1.0000000000e-06
61, 1.0000000000e-04, 0.0000000000e+00, -7.5000000000e-07
62, 1.0200000000e-04, 0.0000000000e+00, -7.5000000000e-07
63, 1.0400000000e-04, 0.0000000000e+00, -7.5000000000e-07
64, 1.0600000000e-04, 0.0000000000e+00, -7.5000000000e-07
65, 1.0800000000e-04, 0.0000000000e+00, -7.5000000000e-07
66, 1.1000000000e-04, 0.0000000000e+00, -7.5000000000e-07
67, 1.3000000000e-04, 0.0000000000e+00, -7.5000000000e-07
68, 1.5000000000e-04, 0.0000000000e+00, -7.5000000000e-07
69, 1.7000000000e-04, 0.0000000000e+00, -7.5000000000e-07
70, 1.9000000000e-04, 0.0000000000e+00, -7.5000000000e-07
71, 2.1000000000e-04, 0.0000000000e+00, -7.5000000000e-07
72, 2.3000000000e-04, 0.0000000000e+00, -7.5000000000e-07
73, 2.5000000000e-04, 0.0000000000e+00, -7.5000000000e-07
74, 2.7000000000e-04, 0.0000000000e+00, -7.5000000000e-07
75, 2.9000000000e-04, 0.0000000000e+00, -7.5000000000e-07
76, 3.1000000000e-04, 0.0000000000e+00, -7.5000000000e-07
77, 3.3000000000e-04, 0.0000000000e+00, -7.5000000000e-07
78, 3.5000000000e-04, 0.0000000000e+00, -7.5000000000e-07
79, 3.7000000000e-04, 0.0000000000e+00, -7.5000000000e-07
80, 3.9000000000e-04, 0.0000000000e+00, -7.5000000000e-07
81, 4.1000000000e-04, 0.0000000000e+00, -7.5000000000e-07
82, 4.3000000000e-04, 0.0000000000e+00, -7.5000000000e-07
83, 4.5000000000e-04, 0.0000000000e+00, -7.5000000000e-07
84, 4.7000000000e-04, 0.0000000000e+00, -7.5000000000e-07
85, 4.9000000000e-04, 0.0000000000e+00, -7.5000000000e-07
86, 4.9200000000e-04, 0.0000000000e+00, -7.5000000000e-07
87, 4.9400000000e-04, 0.0000000000e+00, -7.5000000000e-07
88, 4.9600000000e-04, 0.0000000000e+00, -7.5000000000e-07
89, 4.9800000000e-04, 0.0000000000e+00, -7.5000000000e-07
90, 5.0000000000e-04, 0.0000000000e+00, -7.5000000000e-07
91, 1.0000000000e-04, 5.0000000000e-05, -7.5000000000e-07
92, 1.0200000000e-04, 5.0000000000e-05, -7.5000000000e-07
93, 1.0400000000e-04, 5.0000000000e-05, -7.5000000000e-07
94, 1.0600000000e-04, 5.0000000000e-05, -7.5000000000e-07
95, 1.0800000000e-04, 5.0000000000e-05, -7.5000000000e-07
96, 1.1000000000e-04, 5.0000000000e-05, -7.5000000000e-07
97, 1.3000000000e-04, 5.0000000000e-05, -7.5000000000e-07
98, 1.5000000000e-04, 5.0000000000e-05, -7.5000000000e-07
99, 1.7000000000e-04, 5.0000000000e-05, -7.5000000000e-07
100, 1.9000000000e-04, 5.0000000000e-05, -7.5000000000e-07
101, 2.1000000000e-04, 5.0000000000e-05, -7.5000000000e-07
102, 2.3000000000e-04, 5.0000000000e-05, -7.5000000000e-07
103, 2.5000000000e-04, 5.0000000000e-05, -7.5000000000e-07
104, 2.7000000000e-04, 5.0000000000e-05, -7.5000000000e-07
105, 2.9000000000e-04, 5.0000000000e-05, -7.5000000000e-07
106, 3.1000000000e-04, 5.0000000000e-05, -7.5000000000e-07
107, 3.3000000000e-04, 5.0000000000e-05, -7.5000000000e-07
108, 3.5000000000e-04, 5.0000000000e-05, -7.5000000000e-07
109, 3.7000000000e-04, 5.0000000000e-05, -7.5000000000e-07
110, 3.9000000000e-04, 5.0000000000e-05, -7.5000000000e-07
111, 4.1000000000e-04, 5.0000000000e-05, -7.5000000000e-07
112, 4.3000000000e-04, 5.0000000000e-05, -7.5000000000e-07
113, 4.5000000000e-04, 5.0000000000e-05, -7.5000000000e-07
114, 4.7000000000e-04, 5.0000000000e-05, -7.5000000000e-07
115, 4.9000000000e-04, 5.0000000000e-05, -7.5000000000e-07
116, 4.9200000000e-04, 5.0000000000e-05, -7.5000000000e-07
117, 4.9400000000e-04, 5.0000000000e-05, -7.5000000000e-07
118, 4.9600000000e-04, 5.0000000000e-05, -7.5000000000e-07
119, 4.9800000000e-04, 5.0000000000e-05, -7.5000000000e-07
120, 5.0000000000e-04, 5.0000000000e-05, -7.5000000000e-07
121, 1.0000000000e-04, 0.0000000000e+00, -5.0000000000e-07
122, 1.0200000000e-04, 0.0000000000e+00, -5.0000000000e-07
123, 1.0400000000e-04, 0.0000000000e+00, -5.0000000000e-07
124, 1.0600000000e-04, 0.0000000000e+00, -5.0000000000e-07
125, 1.0800000000e-04, 0.0000000000e+00, -5.0000000000e-07
126, 1.1000000000e-04, 0.0000000000e+00, -5.0000000000e-07
127, 1.3000000000e-04, 0.0000000000e+00, -5.0000000000e-07
128, 1.5000000000e-04, 0.0000000000e+00, -5.0000000000e-07
129, 1.7000000000e-04, 0.0000000000e+00, -5.0000000000e-07
130, 1.9000000000e-04, 0.0000000000e+00, -5.0000000000e-07
131, 2.1000000000e-04, 0.0000000000e+00, -5.0000000000e-07
132, 2.3000000000e-04, 0.0000000000e+00, -5.0000000000e-07
133, 2.5000000000e-04, 0.0000000000e+00, -5.0000000000e-07
134, 2.7000000000e-04, 0.0000000000e+00, -5.0000000000e-07
135, 2.9000000000e-04, 0.0000000000e+00, -5.0000000000e-07
136, 3.1000000000e-04, 0.0000000000e+00, -5.0000000000e-07
137, 3.3000000000e-04, 0.0000000000e+00, -5.0000000000e-07
138, 3.5000000000e-04, 0.0000000000e+00, -5.0000000000e-07
139, 3.7000000000e-04, 0.0000000000e+00, -5.0000000000e-07
140, 3.9000000000e-04, 0.0000000000e+00, -5.0000000000e-07
141, 4.1000000000e-04, 0.0000000000e+00, -5.0000000000e-07
142, 4.3000000000e-04, 0.0000000000e+00, -5.0000000000e-07
143, 4.5000000000e-04, 0.0000000000e+00, -5.0000000000e-07
144, 4.7000000000e-04, 0.0000000000e+00, -5.0000000000e-07
145, 4.9000000000e-04, 0.0000000000e+00, -5.0000000000e-07
146, 4.9200000000e-04, 0.0000000000e+00, -5.0000000000e-07
147, 4.9400000000e-04, 0.0000000000e+00, -5.0000000000e-07
148, 4.9600000000e-04, 0.0000000000e+00, -5.0000000000e-07
149, 4.9800000000e-04, 0.0000000000e+00, -5.0000000000e-07
150, 5.0000000000e-04, 0.0000000000e+00, -5.0000000000e-07
151, 1.0000000000e-04, 5.0000000000e-05, -5.0000000000e-07
152, 1.0200000000e-04, 5.0000000000e-05, -5.0000000000e-07
153, 1.0400000000e-04, 5.0000000000e-05, -5.0000000000e-07
154, 1.0600000000e-04, 5.0000000000e-05, -5.0000000000e-07
155, 1.0800000000e-04, 5.0000000000e-05, -5.0000000000e-07
156, 1.1000000000e-04, 5.0000000000e-05, -5.0000000000e-07
157, 1.3000000000e-04, 5.0000000000e-05, -5.0000000000e-07
158, 1.5000000000e-04, 5.0000000000e-05, -5.0000000000e-07
159, 1.7000000000e-04, 5.0000000000e-05, -5.0000000000e-07
160, 1.9000000000e-04, 5.0000000000e-05, -5.0000000000e-07
161, 2.1000000000e-04, 5.0000000000e-05, -5.0000000000e-07
162, 2.3000000000e-04, 5.0000000000e-05, -5.0000000000e-07
163, 2.5000000000e-04, 5.0000000000e-05, -5.0000000000e-07
164, 2.7000000000e-04, 5.0000000000e-05, -5.0000000000e-07
165, 2.9000000000e-04, 5.0000000000e-05, -5.0000000000e-07
166, 3.1000000000e-04, 5.0000000000e-05, -5.0000000000e-07
167, 3.3000000000e-04, 5.0000000000e-05, -5.0000000000e-07
168, 3.5000000000e-04, 5.0000000000e-05, -5.0000000000e-07
169, 3.7000000000e-04, 5.0000000000e-05, -5.0000000000e-07
170, 3.9000000000e-04, 5.0000000000e-05, -5.0000000000e-07
171, 4.1000000000e-04, 5.0000000000e-05, -5.0000000000e-07
172, 4.3000000000e-04, 5.0000000000e-05, -5.0000000000e-07
173, 4.5000000000e-04, 5.0000000000e-05, -5.0000000000e-07
174, 4.7000000000e-04, 5.0000000000e-05, -5.0000000000e-07
175, 4.9000000000e-04, 5.0000000000e-05, -5.0000000000e-07
176, 4.9200000000e-04, 5.0000000000e-05, -5.0000000000e-07
177, 4.9400000000e-04, 5.0000000000e-05, -5.0000000000e-07
178, 4.9600000000e-04, 5.0000000000e-05, -5.0000000000e-07
179, 4.9800000000e-04, 5.0000000000e-05, -5.0000000000e-07
180, 5.0000000000e-04, 5.0000000000e-05, -5.0000000000e-07
181, 1.0000000000e-04, 0.0000000000e+00, -2.5000000000e-07
182, 1.0200000000e-04, 0.0000000000e+00, -2.5000000000e-07
183, 1.0400000000e-04, 0.0000000000e+00, -2.5000000000e-07
184, 1.0600000000e-04, 0.0000000000e+00, -2.5000000000e-07
185, 1.0800000000e-04, 0.0000000000e+00, -2.5000000000e-07
186, 1.1000000000e-04, 0.0000000000e+00, -2.5000000000e-07
187, 1.3000000000e-04, 0.0000000000e+00, -2.5000000000e-07
188, 1.5000000000e-04, 0.0000000000e+00, -2.5000000000e-07
189, 1.7000000000e-04, 0.0000000000e+00, -2.5000000000e-07
190, 1.9000000000e-04, 0.0000000000e+00, -2.5000000000e-07
191, 2.1000000000e-04, 0.0000000000e+00, -2.5000000000e-07
192, 2.3000000000e-04, 0.0000000000e+00, -2.5000000000e-07
193, 2.5000000000e-04, 0.0000000000e+00, -2.5000000000e-07
194, 2.7000000000e-04, 0.0000000000e+00, -2.5000000000e-07
195, 2.9000000000e-04, 0.0000000000e+00, -2.5000000000e-07
196, 3.1000000000e-04, 0.0000000000e+00, -2.5000000000e-07
197, 3.3000000000e-04, 0.0000000000e+00, -2.5000000000e-07
198, 3.5000000000e-04, 0.0000000000e+00, -2.5000000000e-07
199, 3.7000000000e-04, 0.0000000000e+00, -2.5000000000e-07
200, 3.9000000000e-04, 0.0000000000e+00, -2.5000000000e-07
201, 4.1000000000e-04, 0.0000000000e+00, -2.5000000000e-07
202, 4.3000000000e-04, 0.0000000000e+00, -2.5000000000e-07
203, 4.5000000000e-04, 0.0000000000e+00, -2.5000000000e-07
204, 4.7000000000e-04, 0.0000000000e+00, -2.5000000000e-07
205, 4.9000000000e-04, 0.0000000000e+00, -2.5000000000e-07
206, 4.9200000000e-04, 0.0000000000e+00, -2.5000000000e-07
207, 4.9400000000e-04, 0.0000000000e+00, -2.5000000000e-07
208, 4.9600000000e-04, 0.0000000000e+00, -2.5000000000e-07
209, 4.9800000000e-04, 0.0000000000e+00, -2.5000000000e-07
210, 5.0000000000e-04, 0.0000000000e+00, -2.5000000000e-07
211, 1.0000000000e-04, 5.0000000000e-05, -2.5000000000e-07
212, 1.0200000000e-04, 5.0000000000e-05, -2.5000000000e-07
213, 1.0400000000e-04, 5.0000000000e-05, -2.5000000000e-07
214, 1.0600000000e-04, 5.0000000000e-05, -2.5000000000e-07
215, 1.0800000000e-04, 5.0000000000e-05, -2.5000000000e-07
216, 1.1000000000e-04, 5.0000000000e-05, -2.5000000000e-07
217, 1.3000000000e-04, 5.0000000000e-05, -2.5000000000e-07
218, 1.5000000000e-04, 5.0000000000e-05, -2.5000000000e-07
219, 1.7000000000e-04, 5.0000000000e-05, -2.5000000000e-07
220, 1.9000000000e-04, 5.0000000000e-05, -2.5000000000e-07
221, 2.1000000000e-04, 5.0000000000e-05, -2.5000000000e-07
222, 2.3000000000e-04, 5.0000000000e-05, -2.5000000000e-07
223, 2.5000000000e-04, 5.0000000000e-05, -2.5000000000e-07
224, 2.7000000000e-04, 5.0000000000e-05, -2.5000000000e-07
225, 2.9000000000e-04, 5.0000000000e-05, -2.5000000000e-07
226, 3.1000000000e-04, 5.0000000000e-05, -2.5000000000e-07
227, 3.3000000000e-04, 5.0000000000e-05, -2.5000000000e-07
228, 3.5000000000e-04, 5.0000000000e-05, -2.5000000000e-07
229, 3.7000000000e-04, 5.0000000000e-05, -2.5000000000e-07
230, 3.9000000000e-04, 5.0000000000e-05, -2.5000000000e-07
231, 4.1000000000e-04, 5.0000000000e-05, -2.5000000000e-07
232, 4.3000000000e-04, 5.0000000000e-05, -2.5000000000e-07
233, 4.5000000000e-04, 5.0000000000e-05, -2.5000000000e-07
234, 4.7000000000e-04, 5.0000000000e-05, -2.5000000000e-07
235, 4.9000000000e-04, 5.0000000000e-05, -2.5000000000e-07
236, 4.9200000000e-04, 5.0000000000e-05, -2.5000000000e-07
237, 4.9400000000e-04, 5.0000000000e-05, -2.5000000000e-07
238, 4.9600000000e-04, 5.0000000000e-05, -2.5000000000e-07
239, 4.9800000000e-04, 5.0000000000e-05, -2.5000000000e-07
240, 5.0000000000e-04, 5.0000000000e-05, -2.5000000000e-07
241, 0.0000000000e+00, 0.0000000000e+00, 0.0000000000e+00
242, 1.5000000000e-05, 0.0000000000e+00, 0.0000000000e+00
243, 3.0000000000e-05, 0.0000000000e+00, 0.0000000000e+00
244, 4.5000000000e-05, 0.0000000000e+00, 0.0000000000e+00
245, 6.0000000000e-05, 0.0000000000e+00, 0.0000000000e+00
246, 7.5000000000e-05, 0.0000000000e+00, 0.0000000000e+00
247, 9.0000000000e-05, 0.0000000000e+00, 0.0000000000e+00
248, 9.2000000000e-05, 0.0000000000e+00, 0.0000000000e+00
249, 9.4000000000e-05, 0.0000000000e+00, 0.0000000000e+00
250, 9.6000000000e-05, 0.0000000000e+00, 0.0000000000e+00
251, 9.8000000000e-05, 0.0000000000e+00, 0.0000000000e+00
252, 1.0000000000e-04, 0.0000000000e+00, 0.0000000000e+00
253, 1.0200000000e-04, 0.0000000000e+00, 0.0000000000e+00
254, 1.0400000000e-04, 0.0000000000e+00, 0.0000000000e+00
255, 1.0600000000e-04, 0.0000000000e+00, 0.0000000000e+00
256, 1.0800000000e-04, 0.0000000000e+00, 0.0000000000e+00
257, 1.1000000000e-04, 0.0000000000e+00, 0.0000000000e+00
258, 1.3000000000e-04, 0.0000000000e+00, 0.0000000000e+00
259, 1.5000000000e-04, 0.0000000000e+00, 0.0000000000e+00
260, 1.7000000000e-04, 0.0000000000e+00, 0.0000000000e+00
261, 1.9000000000e-04, 0.0000000000e+00, 0.0000000000e+00
262, 2.1000000000e-04, 0.0000000000e+00, 0.0000000000e+00
263, 2.3000000000e-04, 0.0000000000e+00, 0.0000000000e+00
264, 2.5000000000e-04, 0.0000000000e+00, 0.0000000000e+00
265, 2.7000000000e-04, 0.0000000000e+00, 0.0000000000e+00
266, 2.9000000000e-04, 0.0000000000e+00, 0.0000000000e+00
267, 3.1000000000e-04, 0.0000000000e+00, 0.0000000000e+00
268, 3.3000000000e-04, 0.0000000000e+00, 0.0000000000e+00
269, 3.5000000000e-04, 0.0000000000e+00, 0.0000000000e+00
270, 3.7000000000e-04, 0.0000000000e+00, 0.0000000000e+00
271, 3.9000000000e-04, 0.0000000000e+00, 0.0000000000e+00
272, 4.1000000000e-04, 0.0000000000e+00, 0.0000000000e+00
273, 4.3000000000e-04, 0.0000000000e+00, 0.0000000000e+00
274, 4.5000000000e-04, 0.0000000000e+00, 0.0000000000e+00
275, 4.7000000000e-04, 0.0000000000e+00, 0.0000000000e+00
276, 4.9000000000e-04, 0.0000000000e+00, 0.0000000000e+00
277, 4.9200000000e-04, 0.0000000000e+00, 0.0000000000e+00
278, 4.9400000000e-04, 0.0000000000e+00, 0.0000000000e+00
279, 4.9600000000e-04, 0.0000000000e+00, 0.0000000000e+00
280, 4.9800000000e-04, 0.0000000000e+00, 0.0000000000e+00
281, 5.0000000000e-04, 0.0000000000e+00, 0.0000000000e+00
282, 5.0200000000e-04, 0.0000000000e+00, 0.0000000000e+00
283, 5.0400000000e-04, 0.0000000000e+00, 0.0000000000e+00
284, 5.0600000000e-04, 0.0000000000e+00, 0.0000000000e+00
285, 5.0800000000e-04, 0.0000000000e+00, 0.0000000000e+00
286, 5.1000000000e-04, 0.0000000000e+00, 0.0000000000e+00
287, 5.2500000000e-04, 0.0000000000e+00, 0.0000000000e+00
288, 5.4000000000e-04, 0.0000000000e+00, 0.0000000000e+00
289, 5.5500000000e-04, 0.0000000000e+00, 0.0000000000e+00
290, 5.7000000000e-04, 0.0000000000e+00, 0.0000000000e+00
291, 5.8500000000e-04, 0.0000000000e+00, 0.0000000000e+00
292, 6.0000000000e-04, 0.0000000000e+00, 0.0000000000e+00
293, 0.0000000000e+00, 5.0000000000e-05, 0.0000000000e+00
294, 1.5000000000e-05, 5.0000000000e-05, 0.0000000000e+00
295, 3.0000000000e-05, 5.0000000000e-05, 0.0000000000e+00
296, 4.5000000000e-05, 5.0000000000e-05, 0.0000000000e+00
297, 6.0000000000e-05, 5.0000000000e-05, 0.0000000000e+00
298, 7.5000000000e-05, 5.0000000000e-05, 0.0000000000e+00
299, 9.0000000000e-05, 5.0000000000e-05, 0.0000000000e+00
300, 9.2000000000e-05, 5.0000000000e-05, 0.0000000000e+00
301, 9.4000000000e-05, 5.0000000000e-05, 0.0000000000e+00
302, 9.6000000000e-05, 5.0000000000e-05, 0.0000000000e+00
303, 9.8000000000e-05, 5.0000000000e-05, 0.0000000000e+00
304, 1.0000000000e-04, 5.0000000000e-05, 0.0000000000e+00
305, 1.0200000000e-04, 5.0000000000e-05, 0.0000000000e+00
306, 1.0400000000e-04, 5.0000000000e-05, 0.0000000000e+00
307, 1.0600000000e-04, 5.0000000000e-05, 0.0000000000e+00
308, 1.0800000000e-04, 5.0000000000e-05, 0.0000000000e+00
309, 1.1000000000e-04, 5.0000000000e-05, 0.0000000000e+00
310, 1.3000000000e-04, 5.0000000000e-05, 0.0000000000e+00
311, 1.5000000000e-04, 5.0000000000e-05, 0.0000000000e+00
312, 1.7000000000e-04, 5.0000000000e-05, 0.0000000000e+00
313, 1.9000000000e-04, 5.0000000000e-05, 0.0000000000e+00
314, 2.1000000000e-04, 5.0000000000e-05, 0.0000000000e+00
315, 2.3000000000e-04, 5.0000000000e-05, 0.0000000000e+00
316, 2.5000000000e-04, 5.0000000000e-05, 0.0000000000e+00
317, 2.7000000000e-04, 5.0000000000e-05, 0.0000000000e+00
318, 2.9000000000e-04, 5.0000000000e-05, 0.0000000000e+00
319, 3.1000000000e-04, 5.0000000000e-05, 0.0000000000e+00
320, 3.3000000000e-04, 5.0000000000e-05, 0.0000000000e+00
321, 3.5000000000e-04, 5.0000000000e-05, 0.0000000000e+00
322, 3.7000000000e-04, 5.0000000000e-05, 0.0000000000e+00
323, 3.9000000000e-04, 5.0000000000e-05, 0.0000000000e+00
324, 4.1000000000e-04, 5.0000000000e-05, 0.0000000000e+00
325, 4.3000000000e-04, 5.0000000000e-05, 0.0000000000e+00
326, 4.5000000000e-04, 5.0000000000e-05, 0.0000000000e+00
327, 4.7000000000e-04, 5.0000000000e-05, 0.0000000000e+00
328, 4.9000000000e-04, 5.0000000000e-05, 0.0000000000e+00
329, 4.9200000000e-04, 5.0000000000e-05, 0.0000000000e+00
330, 4.9400000000e-04, 5.0000000000e-05, 0.0000000000e+00
331, 4.9600000000e-04, 5.0000000000e-05, 0.0000000000e+00
332, 4.9800000000e-04, 5.0000000000e-05, 0.0000000000e+00
333, 5.0000000000e-04, 5.0000000000e-05, 0.0000000000e+00
334, 5.0200000000e-04, 5.0000000000e-05, 0.0000000000e+00
335, 5.0400000000e-04, 5.0000000000e-05, 0.0000000000e+00
336, 5.0600000000e-04, 5.0000000000e-05, 0.0000000000e+00
337, 5.0800000000e-04, 5.0000000000e-05, 0.0000000000e+00
338, 5.1000000000e-04, 5.0000000000e-05, 0.0000000000e+00
339, 5.2500000000e-04, 5.0000000000e-05, 0.0000000000e+00
340, 5.4000000000e-04, 5.0000000000e-05, 0.0000000000e+00
341, 5.5500000000e-04, 5.0000000000e-05, 0.0000000000e+00
342, 5.7000000000e-04, 5.0000000000e-05, 0.0000000000e+00
343, 5.8500000000e-04, 5.0000000000e-05, 0.0000000000e+00
344, 6.0000000000e-04, 5.0000000000e-05, 0.0000000000e+00
345, 0.0000000000e+00, 0.0000000000e+00, 1.0000000000e-07
346, 1.5000000000e-05, 0.0000000000e+00, 1.0000000000e-07
347, 3.0000000000e-05, 0.0000000000e+00, 1.0000000000e-07
348, 4.5000000000e-05, 0.0000000000e+00, 1.0000000000e-07
349, 6.0000000000e-05, 0.0000000000e+00, 1.0000000000e-07
350, 7.5000000000e-05, 0.0000000000e+00, 1.0000000000e-07
351, 9.0000000000e-05, 0.0000000000e+00, 1.0000000000e-07
352, 9.2000000000e-05, 0.0000000000e+00, 1.0000000000e-07
353, 9.4000000000e-05, 0.0000000000e+00, 1.0000000000e-07
354, 9.6000000000e-05, 0.0000000000e+00, 1.0000000000e-07
355, 9.8000000000e-05, 0.0000000000e+00, 1.0000000000e-07
356, 1.0000000000e-04, 0.0000000000e+00, 1.0000000000e-07
357, 1.0200000000e-04, 0.0000000000e+00, 1.0000000000e-07
358, 1.0400000000e-04, 0.0000000000e+00, 1.0000000000e-07
359, 1.0600000000e-04, 0.0000000000e+00, 1.0000000000e-07
360, 1.0800000000e-04, 0.0000000000e+00, 1.0000000000e-07
361, 1.1000000000e-04, 0.0000000000e+00, 1.0000000000e-07
362, 1.3000000000e-04, 0.0000000000e+00, 1.0000000000e-07
363, 1.5000000000e-04, 0.0000000000e+00, 1.0000000000e-07
364, 1.7000000000e-04, 0.0000000000e+00, 1.0000000000e-07
365, 1.9000000000e-04, 0.0000000000e+00, 1.0000000000e-07
366, 2.1000000000e-04, 0.0000000000e+00, 1.0000000000e-07
367, 2.3000000000e-04, 0.0000000000e+00, 1.0000000000e-07
368, 2.5000000000e-04, 0.0000000000e+00, 1.0000000000e-07
369, 2.7000000000e-04, 0.0000000000e+00, 1.0000000000e-07
370, 2.9000000000e-04, 0.0000000000e+00, 1.0000000000e-07
371, 3.1000000000e-04, 0.0000000000e+00, 1.0000000000e-07
372, 3.3000000000e-04, 0.0000000000e+00, 1.0000000000e-07
373, 3.5000000000e-04, 0.0000000000e+00, 1.0000000000e-07
374, 3.7000000000e-04, 0.0000000000e+00, 1.0000000000e-07
375, 3.9000000000e-04, 0.0000000000e+00, 1.0000000000e-07
376, 4.1000000000e-04, 0.0000000000e+00, 1.0000000000e-07
377, 4.3000000000e-04, 0.0000000000e+00, 1.0000000000e-07
378, 4.5000000000e-04, 0.0000000000e+00, 1.0000000000e-07
379, 4.7000000000e-04, 0.0000000000e+00, 1.0000000000e-07
380, 4.9000000000e-04, 0.0000000000e+00, 1.0000000000e-07
381, 4.9200000000e-04, 0.0000000000e+00, 1.0000000000e-07
382, 4.9400000000e-04, 0.0000000000e+00, 1.0000000000e-07
383, 4.9600000000e-04, 0.0000000000e+00, 1.0000000000e-07
384, 4.9800000000e-04, 0.0000000000e+00, 1.0000000000e-07
385, 5.0000000000e-04, 0.0000000000e+00, 1.0000000000e-07
386, 5.0200000000e-04, 0.0000000000e+00, 1.0000000000e-07
387, 5.0400000000e-04, 0.0000000000e+00, 1.0000000000e-07
388, 5.0600000000e-04, 0.0000000000e+00, 1.0000000000e-07
389, 5.0800000000e-04, 0.0000000000e+00, 1.0000000000e-07
390, 5.1000000000e-04, 0.0000000000e+00, 1.0000000000e-07
391, 5.2500000000e-04, 0.0000000000e+00, 1.0000000000e-07
392, 5.4000000000e-04, 0.0000000000e+00, 1.0000000000e-07
393, 5.5500000000e-04, 0.0000000000e+00, 1.0000000000e-07
394, 5.7000000000e-04, 0.0000000000e+00, 1.0000000000e-07
395, 5.8500000000e-04, 0.0000000000e+00, 1.0000000000e-07
396, 6.0000000000e-04, 0.0000000000e+00, 1.0000000000e-07
397, 0.0000000000e+00, 5.0000000000e-05, 1.0000000000e-07
398, 1.5000000000e-05, 5.0000000000e-05, 1.0000000000e-07
399, 3.0000000000e-05, 5.0000000000e-05, 1.0000000000e-07
400, 4.5000000000e-05, 5.0000000000e-05, 1.0000000000e-07
401, 6.0000000000e-05, 5.0000000000e-05, 1.0000000000e-07
402, 7.5000000000e-05, 5.0000000000e-05, 1.0000000000e-07
403, 9.0000000000e-05, 5.0000000000e-05, 1.0000000000e-07
404, 9.2000000000e-05, 5.0000000000e-05, 1.0000000000e-07
405, 9.4000000000e-05, 5.0000000000e-05, 1.0000000000e-07
406, 9.6000000000e-05, 5.0000000000e-05, 1.0000000000e-07
407, 9.8000000000e-05, 5.0000000000e-05, 1.0000000000e-07
408, 1.0000000000e-04, 5.0000000000e-05, 1.0000000000e-07
409, 1.0200000000e-04, 5.0000000000e-05, 1.0000000000e-07
410, 1.0400000000e-04, 5.0000000000e-05, 1.0000000000e-07
411, 1.0600000000e-04, 5.0000000000e-05, 1.0000000000e-07
412, 1.0800000000e-04, 5.0000000000e-05, 1.0000000000e-07
413, 1.1000000000e-04, 5.0000000000e-05, 1.0000000000e-07
414, 1.3000000000e-04, 5.0000000000e-05, 1.0000000000e-07
415, 1.5000000000e-04, 5.0000000000e-05, 1.0000000000e-07
416, 1.7000000000e-04, 5.0000000000e-05, 1.0000000000e-07
417, 1.9000000000e-04, 5.0000000000e-05, 1.0000000000e-07
418, 2.1000000000e-04, 5.0000000000e-05, 1.0000000000e-07
419, 2.3000000000e-04, 5.0000000000e-05, 1.0000000000e-07
420, 2.5000000000e-04, 5.0000000000e-05, 1.0000000000e-07
421, 2.7000000000e-04, 5.0000000000e-05, 1.0000000000e-07
422, 2.9000000000e-04, 5.0000000000e-05, 1.0000000000e-07
423, 3.1000000000e-04, 5.0000000000e-05, 1.0000000000e-07
424, 3.3000000000e-04, 5.0000000000e-05, 1.0000000000e-07
425, 3.5000000000e-04, 5.0000000000e-05, 1.0000000000e-07
426, 3.7000000000e-04, 5.0000000000e-05, 1.0000000000e-07
427, 3.9000000000e-04, 5.0000000000e-05, 1.0000000000e-07
428, 4.1000000000e-04, 5.0000000000e-05, 1.0000000000e-07
429, 4.3000000000e-04, 5.0000000000e-05, 1.0000000000e-07
430, 4.5000000000e-04, 5.0000000000e-05, 1.0000000000e-07
431, 4.7000000000e-04, 5.0000000000e-05, 1.0000000000e-07
432, 4.9000000000e-04, 5.0000000000e-05, 1.0000000000e-07
433, 4.9200000000e-04, 5.0000000000e-05, 1.0000000000e-07
434, 4.9400000000e-04, 5.0000000000e-05, 1.0000000000e-07
435, 4.9600000000e-04, 5.0000000000e-05, 1.0000000000e-07
436, 4.9800000000e-04, 5.0000000000e-05, 1.0000000000e-07
437, 5.0000000000e-04, 5.0000000000e-05, 1.0000000000e-07
438, 5.0200000000e-04, 5.0000000000e-05, 1.0000000000e-07
439, 5.0400000000e-04, 5.0000000000e-05, 1.0000000000e-07
440, 5.0600000000e-04, 5.0000000000e-05, 1.0000000000e-07
441, 5.0800000000e-04, 5.0000000000e-05, 1.0000000000e-07
442, 5.1000000000e-04, 5.0000000000e-05, 1.0000000000e-07
443, 5.2500000000e-04, 5.0000000000e-05, 1.0000000000e-07
444, 5.4000000000e-04, 5.0000000000e-05, 1.0000000000e-07
445, 5.5500000000e-04, 5.0000000000e-05, 1.0000000000e-07
446, 5.7000000000e-04, 5.0000000000e-05, 1.0000000000e-07
447, 5.8500000000e-04, 5.0000000000e-05, 1.0000000000e-07
448, 6.0000000000e-04, 5.0000000000e-05, 1.0000000000e-07
449, 0.0000000000e+00, 0.0000000000e+00, 2.0000000000e-07
450, 1.5000000000e-05, 0.0000000000e+00, 2.0000000000e-07
451, 3.0000000000e-05, 0.0000000000e+00, 2.0000000000e-07
452, 4.5000000000e-05, 0.0000000000e+00, 2.0000000000e-07
453, 6.0000000000e-05, 0.0000000000e+00, 2.0000000000e-07
454, 7.5000000000e-05, 0.0000000000e+00, 2.0000000000e-07
455, 9.0000000000e-05, 0.0000000000e+00, 2.0000000000e-07
456, 9.2000000000e-05, 0.0000000000e+00, 2.0000000000e-07
457, 9.4000000000e-05, 0.0000000000e+00, 2.0000000000e-07
458, 9.6000000000e-05, 0.0000000000e+00, 2.0000000000e-07
459, 9.8000000000e-05, 0.0000000000e+00, 2.0000000000e-07
460, 1.0000000000e-04, 0.0000000000e+00, 2.0000000000e-07
461, 1.0200000000e-04, 0.0000000000e+00, 2.0000000000e-07
462, 1.0400000000e-04, 0.0000000000e+00, 2.0000000000e-07
463, 1.0600000000e-04, 0.0000000000e+00, 2.0000000000e-07
464, 1.0800000000e-04, 0.0000000000e+00, 2.0000000000e-07
465, 1.1000000000e-04, 0.0000000000e+00, 2.0000000000e-07
466, 1.3000000000e-04, 0.0000000000e+00, 2.0000000000e-07
467, 1.5000000000e-04, 0.0000000000e+00, 2.0000000000e-07
468, 1.7000000000e-04, 0.0000000000e+00, 2.0000000000e-07
469, 1.9000000000e-04, 0.0000000000e+00, 2.0000000000e-07
470, 2.1000000000e-04, 0.0000000000e+00, 2.0000000000e-07
471, 2.3000000000e-04, 0.0000000000e+00, 2.0000000000e-07
472, 2.5000000000e-04, 0.0000000000e+00, 2.0000000000e-07
473, 2.7000000000e-04, 0.0000000000e+00, 2.0000000000e-07
474, 2.9000000000e-04, 0.0000000000e+00, 2.0000000000e-07
475, 3.1000000000e-04, 0.0000000000e+00, 2.0000000000e-07
476, 3.3000000000e-04, 0.0000000000e+00, 2.0000000000e-07
477, 3.5000000000e-04, 0.0000000000e+00, 2.0000000000e-07
478, 3.7000000000e-04, 0.0000000000e+00, 2.0000000000e-07
479, 3.9000000000e-04, 0.0000000000e+00, 2.0000000000e-07
480, 4.1000000000e-04, 0.0000000000e+00, 2.0000000000e-07
481, 4.3000000000e-04, 0.0000000000e+00, 2.0000000000e-07
482, 4.5000000000e-04, 0.0000000000e+00, 2.0000000000e-07
483, 4.7000000000e-04, 0.0000000000e+00, 2.0000000000e-07
484, 4.9000000000e-04, 0.0000000000e+00, 2.0000000000e-07
485, 4.9200000000e-04, 0.0000000000e+00, 2.0000000000e-07
486, 4.9400000000e-04, 0.0000000000e+00, 2.0000000000e-07
487, 4.9600000000e-04, 0.0000000000e+00, 2.0000000000e-07
488, 4.9800000000e-04, 0.0000000000e+00, 2.0000000000e-07
489, 5.0000000000e-04, 0.0000000000e+00, 2.0000000000e-07
490, 5.0200000000e-04, 0.0000000000e+00, 2.0000000000e-07
491, 5.0400000000e-04, 0.0000000000e+00, 2.0000000000e-07
492, 5.0600000000e-04, 0.0000000000e+00, 2.0000000000e-07
493, 5.0800000000e-04, 0.0000000000e+00, 2.0000000000e-07
494, 5.1000000000e-04, 0.0000000000e+00, 2.0000000000e-07
495, 5.2500000000e-04, 0.0000000000e+00, 2.0000000000e-07
496, 5.4000000000e-04, 0.0000000000e+00, 2.0000000000e-07
497, 5.5500000000e-04, 0.0000000000e+00, 2.0000000000e-07
498, 5.7000000000e-04, 0.0000000000e+00, 2.0000000000e-07
499, 5.8500000000e-04, 0.0000000000e+00, 2.0000000000e-07
500, 6.0000000000e-04, 0.0000000000e+00, 2.0000000000e-07
501, 0.0000000000e+00, 5.0000000000e-05, 2.0000000000e-07
502, 1.5000000000e-05, 5.0000000000e-05, 2.0000000000e-07
503, 3.0000000000e-05, 5.0000000000e-05, 2.0000000000e-07
504, 4.5000000000e-05, 5.0000000000e-05, 2.0000000000e-07
505, 6.0000000000e-05, 5.0000000000e-05, 2.0000000000e-07
506, 7.5000000000e-05, 5.0000000000e-05, 2.0000000000e-07
507, 9.0000000000e-05, 5.0000000000e-05, 2.0000000000e-07
508, 9.2000000000e-05, 5.0000000000e-05, 2.0000000000e-07
509, 9.4000000000e-05, 5.0000000000e-05, 2.0000000000e-07
510, 9.6000000000e-05, 5.0000000000e-05, 2.0000000000e-07
511, 9.8000000000e-05, 5.0000000000e-05, 2.0000000000e-07
512, 1.0000000000e-04, 5.0000000000e-05, 2.0000000000e-07
513, 1.0200000000e-04, 5.0000000000e-05, 2.0000000000e-07
514, 1.0400000000e-04, 5.0000000000e-05, 2.0000000000e-07
515, 1.0600000000e-04, 5.0000000000e-05, 2.0000000000e-07
516, 1.0800000000e-04, 5.0000000000e-05, 2.0000000000e-07
517, 1.1000000000e-04, 5.0000000000e-05, 2.0000000000e-07
518, 1.3000000000e-04, 5.0000000000e-05, 2.0000000000e-07
519, 1.5000000000e-04, 5.0000000000e-05, 2.0000000000e-07
520, 1.7000000000e-04, 5.0000000000e-05, 2.0000000000e-07
521, 1.9000000000e-04, 5.0000000000e-05, 2.0000000000e-07
522, 2.1000000000e-04, 5.0000000000e-05, 2.0000000000e-07
523, 2.3000000000e-04, 5.0000000000e-05, 2.0000000000e-07
524, 2.5000000000e-04, 5.0000000000e-05, 2.0000000000e-07
525, 2.7000000000e-04, 5.0000000000e-05, 2.0000000000e-07
526, 2.9000000000e-04, 5.0000000000e-05, 2.0000000000e-07
527, 3.1000000000e-04, 5.0000000000e-05, 2.0000000000e-07
528, 3.3000000000e-04, 5.0000000000e-05, 2.0000000000e-07
529, 3.5000000000e-04, 5.0000000000e-05, 2.0000000000e-07
530, 3.7000000000e-04, 5.0000000000e-05, 2.0000000000e-07
531, 3.9000000000e-04, 5.0000000000e-05, 2.0000000000e-07
532, 4.1000000000e-04, 5.0000000000e-05, 2.0000000000e-07
533, 4.3000000000e-04, 5.0000000000e-05, 2.0000000000e-07
534, 4.5000000000e-04, 5.0000000000e-05, 2.0000000000e-07
535, 4.7000000000e-04, 5.0000000000e-05, 2.0000000000e-07
536, 4.9000000000e-04, 5.0000000000e-05, 2.0000000000e-07
537, 4.9200000000e-04, 5.0000000000e-05, 2.0000000000e-07
538, 4.9400000000e-04, 5.0000000000e-05, 2.0000000000e-07
539, 4.9600000000e-04, 5.0000000000e-05, 2.0000000000e-07
540, 4.9800000000e-04, 5.0000000000e-05, 2.0000000000e-07
541, 5.0000000000e-04, 5.0000000000e-05, 2.0000000000e-07
542, 5.0200000000e-04, 5.0000000000e-05, 2.0000000000e-07
543, 5.0400000000e-04, 5.0000000000e-05, 2.0000000000e-07
544, 5.0600000000e-04, 5.0000000000e-05, 2.0000000000e-07
545, 5.0800000000e-04, 5.0000000000e-05, 2.0000000000e-07
546, 5.1000000000e-04, 5.0000000000e-05, 2.0000000000e-07
547, 5.2500000000e-04, 5.0000000000e-05, 2.0000000000e-07
548, 5.4000000000e-04, 5.0000000000e-05, 2.0000000000e-07
549, 5.5500000000e-04, 5.0000000000e-05, 2.0000000000e-07
550, 5.7000000000e-04, 5.0000000000e-05, 2.0000000000e-07
551, 5.8500000000e-04, 5.0000000000e-05, 2.0000000000e-07
552, 6.0000000000e-04, 5.0000000000e-05, 2.0000000000e-07
553, 0.0000000000e+00, 0.0000000000e+00, 3.0000000000e-07
554, 1.5000000000e-05, 0.0000000000e+00, 3.0000000000e-07
555, 3.0000000000e-05, 0.0000000000e+00, 3.0000000000e-07
556, 4.5000000000e-05, 0.0000000000e+00, 3.0000000000e-07
557, 6.0000000000e-05, 0.0000000000e+00, 3.0000000000e-07
558, 7.5000000000e-05, 0.0000000000e+00, 3.0000000000e-07
559, 9.0000000000e-05, 0.0000000000e+00, 3.0000000000e-07
560, 9.2000000000e-05, 0.0000000000e+00, 3.0000000000e-07
561, 9.4000000000e-05, 0.0000000000e+00, 3.0000000000e-07
562, 9.6000000000e-05, 0.0000000000e+00, 3.0000000000e-07
563, 9.8000000000e-05, 0.0000000000e+00, 3.0000000000e-07
564, 1.0000000000e-04, 0.0000000000e+00, 3.0000000000e-07
565, 1.0200000000e-04, 0.0000000000e+00, 3.0000000000e-07
566, 1.0400000000e-04, 0.0000000000e+00, 3.0000000000e-07
567, 1.0600000000e-04, 0.0000000000e+00, 3.0000000000e-07
568, 1.0800000000e-04, 0.0000000000e+00, 3.0000000000e-07
569, 1.1000000000e-04, 0.0000000000e+00, 3.0000000000e-07
570, 1.3000000000e-04, 0.0000000000e+00, 3.0000000000e-07
571, 1.5000000000e-04, 0.0000000000e+00, 3.0000000000e-07
572, 1.7000000000e-04, 0.0000000000e+00, 3.0000000000e-07
573, 1.9000000000e-04, 0.0000000000e+00, 3.0000000000e-07
574, 2.1000000000e-04, 0.0000000000e+00, 3.0000000000e-07
575, 2.3000000000e-04, 0.0000000000e+00, 3.0000000000e-07
576, 2.5000000000e-04, 0.0000000000e+00, 3.0000000000e-07
577, 2.7000000000e-04, 0.0000000000e+00, 3.0000000000e-07
578, 2.9000000000e-04, 0.0000000000e+00, 3.0000000000e-07
579, 3.1000000000e-04, 0.0000000000e+00, 3.0000000000e-07
580, 3.3000000000e-04, 0.0000000000e+00, 3.0000000000e-07
581, 3.5000000000e-04, 0.0000000000e+00, 3.0000000000e-07
582, 3.7000000000e-04, 0.0000000000e+00, 3.0000000000e-07
583, 3.9000000000e-04, 0.0000000000e+00, 3.0000000000e-07
584, 4.1000000000e-04, 0.0000000000e+00, 3.0000000000e-07
585, 4.3000000000e-04, 0.0000000000e+00, 3.0000000000e-07
586, 4.5000000000e-04, 0.0000000000e+00, 3.0000000000e-07
587, 4.7000000000e-04, 0.0000000000e+00, 3.0000000000e-07
588, 4.9000000000e-04, 0.0000000000e+00, 3.0000000000e-07
589, 4.9200000000e-04, 0.0000000000e+00, 3.0000000000e-07
590, 4.9400000000e-04, 0.0000000000e+00, 3.0000000000e-07
591, 4.9600000000e-04, 0.0000000000e+00, 3.0000000000e-07
592, 4.9800000000e-04, 0.0000000000e+00, 3.0000000000e-07
593, 5.0000000000e-04, 0.0000000000e+00, 3.0000000000e-07
594, 5.0200000000e-04, 0.0000000000e+00, 3.0000000000e-07
595, 5.0400000000e-04, 0.0000000000e+00, 3.0000000000e-07
596, 5.0600000000e-04, 0.0000000000e+00, 3.0000000000e-07
597, 5.0800000000e-04, 0.0000000000e+00, 3.0000000000e-07
598, 5.1000000000e-04, 0.0000000000e+00, 3.0000000000e-07
599, 5.2500000000e-04, 0.0000000000e+00, 3.0000000000e-07
600, 5.4000000000e-04, 0.0000000000e+00, 3.0000000000e-07
601, 5.5500000000e-04, 0.0000000000e+00, 3.0000000000e-07
602, 5.7000000000e-04, 0.0000000000e+00, 3.0000000000e-07
603, 5.8500000000e-04, 0.0000000000e+00, 3.0000000000e-07
604, 6.0000000000e-04, 0.0000000000e+00, 3.0000000000e-07
605, 0.0000000000e+00, 5.0000000000e-05, 3.0000000000e-07
606, 1.5000000000e-05, 5.0000000000e-05, 3.0000000000e-07
607, 3.0000000000e-05, 5.0000000000e-05, 3.0000000000e-07
608, 4.5000000000e-05, 5.0000000000e-05, 3.0000000000e-07
609, 6.0000000000e-05, 5.0000000000e-05, 3.0000000000e-07
610, 7.5000000000e-05, 5.0000000000e-05, 3.0000000000e-07
611, 9.0000000000e-05, 5.0000000000e-05, 3.0000000000e-07
612, 9.2000000000e-05, 5.0000000000e-05, 3.0000000000e-07
613, 9.4000000000e-05, 5.0000000000e-05, 3.0000000000e-07
614, 9.6000000000e-05, 5.0000000000e-05, 3.0000000000e-07
615, 9.8000000000e-05, 5.0000000000e-05, 3.0000000000e-07
616, 1.0000000000e-04, 5.0000000000e-05, 3.0000000000e-07
617, 1.0200000000e-04, 5.0000000000e-05, 3.0000000000e-07
618, 1.0400000000e-04, 5.0000000000e-05, 3.0000000000e-07
619, 1.0600000000e-04, 5.0000000000e-05, 3.0000000000e-07
620, 1.0800000000e-04, 5.0000000000e-05, 3.0000000000e-07
621, 1.1000000000e-04, 5.0000000000e-05, 3.0000000000e-07
622, 1.3000000000e-04, 5.0000000000e-05, 3.0000000000e-07
623, 1.5000000000e-04, 5.0000000000e-05, 3.0000000000e-07
624, 1.7000000000e-04, 5.0000000000e-05, 3.0000000000e-07
625, 1.9000000000e-04, 5.0000000000e-05, 3.0000000000e-07
626, 2.1000000000e-04, 5.0000000000e-05, 3.0000000000e-07
627, 2.3000000000e-04, 5.0000000000e-05, 3.0000000000e-07
628, 2.5000000000e-04, 5.0000000000e-05, 3.0000000000e-07
629, 2.7000000000e-04, 5.0000000000e-05, 3.0000000000e-07
630, 2.9000000000e-04, 5.0000000000e-05, 3.0000000000e-07
631, 3.1000000000e-04, 5.0000000000e-05, 3.0000000000e-07
632, 3.3000000000e-04, 5.0000000000e-05, 3.0000000000e-07
633, 3.5000000000e-04, 5.0000000000e-05, 3.0000000000e-07
634, 3.7000000000e-04, 5.0000000000e-05, 3.0000000000e-07
635, 3.9000000000e-04, 5.0000000000e-05, 3.0000000000e-07
636, 4.1000000000e-04, 5.0000000000e-05, 3.0000000000e-07
637, 4.3000000000e-04, 5.0000000000e-05, 3.0000000000e-07
638, 4.5000000000e-04, 5.0000000000e-05, 3.0000000000e-07
639, 4.7000000000e-04, 5.0000000000e-05, 3.0000000000e-07
640, 4.9000000000e-04, 5.0000000000e-05, 3.0000000000e-07
641, 4.9200000000e-04, 5.0000000000e-05, 3.0000000000e-07
642, 4.9400000000e-04, 5.0000000000e-05, 3.0000000000e-07
643, 4.9600000000e-04, 5.0000000000e-05, 3.0000000000e-07
644, 4.9800000000e-04, 5.0000000000e-05, 3.0000000000e-07
645, 5.0000000000e-04, 5.0000000000e-05, 3.0000000000e-07
646, 5.0200000000e-04, 5.0000000000e-05, 3.0000000000e-07
647, 5.0400000000e-04, 5.0000000000e-05, 3.0000000000e-07
648, 5.0600000000e-04, 5.0000000000e-05, 3.0000000000e-07
649, 5.0800000000e-04, 5.0000000000e-05, 3.0000000000e-07
650, 5.1000000000e-04, 5.0000000000e-05, 3.0000000000e-07
651, 5.2500000000e-04, 5.0000000000e-05, 3.0000000000e-07
652, 5.4000000000e-04, 5.0000000000e-05, 3.0000000000e-07
653, 5.5500000000e-04, 5.0000000000e-05, 3.0000000000e-07
654, 5.7000000000e-04, 5.0000000000e-05, 3.0000000000e-07
655, 5.8500000000e-04, 5.0000000000e-05, 3.0000000000e-07
656, 6.0000000000e-04, 5.0000000000e-05, 3.0000000000e-07
657, 0.0000000000e+00, 0.0000000000e+00, 4.0000000000e-07
658, 1.5000000000e-05, 0.0000000000e+00, 4.0000000000e-07
659, 3.0000000000e-05, 0.0000000000e+00, 4.0000000000e-07
660, 4.5000000000e-05, 0.0000000000e+00, 4.0000000000e-07
661, 6.0000000000e-05, 0.0000000000e+00, 4.0000000000e-07
662, 7.5000000000e-05, 0.0000000000e+00, 4.0000000000e-07
663, 9.0000000000e-05, 0.0000000000e+00, 4.0000000000e-07
664, 9.2000000000e-05, 0.0000000000e+00, 4.0000000000e-07
665, 9.4000000000e-05, 0.0000000000e+00, 4.0000000000e-07
666, 9.6000000000e-05, 0.0000000000e+00, 4.0000000000e-07
667, 9.8000000000e-05, 0.0000000000e+00, 4.0000000000e-07
668, 1.0000000000e-04, 0.0000000000e+00, 4.0000000000e-07
669, 1.0200000000e-04, 0.0000000000e+00, 4.0000000000e-07
670, 1.0400000000e-04, 0.0000000000e+00, 4.0000000000e-07
671, 1.0600000000e-04, 0.0000000000e+00, 4.0000000000e-07
672, 1.0800000000e-04, 0.0000000000e+00, 4.0000000000e-07
673, 1.1000000000e-04, 0.0000000000e+00, 4.0000000000e-07
674, 1.3000000000e-04, 0.0000000000e+00, 4.0000000000e-07
675, 1.5000000000e-04, 0.0000000000e+00, 4.0000000000e-07
676, 1.7000000000e-04, 0.0000000000e+00, 4.0000000000e-07
677, 1.9000000000e-04, 0.0000000000e+00, 4.0000000000e-07
678, 2.1000000000e-04, 0.0000000000e+00, 4.0000000000e-07
679, 2.3000000000e-04, 0.0000000000e+00, 4.0000000000e-07
680, 2.5000000000e-04, 0.0000000000e+00, 4.0000000000e-07
681, 2.7000000000e-04, 0.0000000000e+00, 4.0000000000e-07
682, 2.9000000000e-04, 0.0000000000e+00, 4.0000000000e-07
683, 3.1000000000e-04, 0.0000000000e+00, 4.0000000000e-07
684, 3.3000000000e-04, 0.0000000000e+00, 4.0000000000e-07
685, 3.5000000000e-04, 0.0000000000e+00, 4.0000000000e-07
686, 3.7000000000e-04, 0.0000000000e+00, 4.0000000000e-07
687, 3.9000000000e-04, 0.0000000000e+00, 4.0000000000e-07
688, 4.1000000000e-04, 0.0000000000e+00, 4.0000000000e-07
689, 4.3000000000e-04, 0.0000000000e+00, 4.0000000000e-07
690, 4.5000000000e-04, 0.0000000000e+00, 4.0000000000e-07
691, 4.7000000000e-04, 0.0000000000e+00, 4.0000000000e-07
692, 4.9000000000e-04, 0.0000000000e+00, 4.0000000000e-07
693, 4.9200000000e-04, 0.0000000000e+00, 4.0000000000e-07
694, 4.9400000000e-04, 0.0000000000e+00, 4.0000000000e-07
695, 4.9600000000e-04, 0.0000000000e+00, 4.0000000000e-07
696, 4.9800000000e-04, 0.0000000000e+00, 4.0000000000e-07
697, 5.0000000000e-04, 0.0000000000e+00, 4.0000000000e-07
698, 5.0200000000e-04, 0.0000000000e+00, 4.0000000000e-07
699, 5.0400000000e-04, 0.0000000000e+00, 4.0000000000e-07
700, 5.0600000000e-04, 0.0000000000e+00, 4.0000000000e-07
701, 5.0800000000e-04, 0.0000000000e+00, 4.0000000000e-07
702, 5.1000000000e-04, 0.0000000000e+00, 4.0000000000e-07
703, 5.2500000000e-04, 0.0000000000e+00, 4.0000000000e-07
704, 5.4000000000e-04, 0.0000000000e+00, 4.0000000000e-07
705, 5.5500000000e-04, 0.0000000000e+00, 4.0000000000e-07
706, 5.7000000000e-04, 0.0000000000e+00, 4.0000000000e-07
707, 5.8500000000e-04, 0.0000000000e+00, 4.0000000000e-07
708, 6.0000000000e-04, 0.0000000000e+00, 4.0000000000e-07
709, 0.0000000000e+00, 5.0000000000e-05, 4.0000000000e-07
710, 1.5000000000e-05, 5.0000000000e-05, 4.0000000000e-07
711, 3.0000000000e-05, 5.0000000000e-05, 4.0000000000e-07
712, 4.5000000000e-05, 5.0000000000e-05, 4.0000000000e-07
713, 6.0000000000e-05, 5.0000000000e-05, 4.0000000000e-07
714, 7.5000000000e-05, 5.0000000000e-05, 4.0000000000e-07
715, 9.0000000000e-05, 5.0000000000e-05, 4.0000000000e-07
716, 9.2000000000e-05, 5.0000000000e-05, 4.0000000000e-07
717, 9.4000000000e-05, 5.0000000000e-05, 4.0000000000e-07
718, 9.6000000000e-05, 5.0000000000e-05, 4.0000000000e-07
719, 9.8000000000e-05, 5.0000000000e-05, 4.0000000000e-07
720, 1.0000000000e-04, 5.0000000000e-05, 4.0000000000e-07
721, 1.0200000000e-04, 5.0000000000e-05, 4.0000000000e-07
722, 1.0400000000e-04, 5.0000000000e-05, 4.0000000000e-07
723, 1.0600000000e-04, 5.0000000000e-05, 4.0000000000e-07
724, 1.0800000000e-04, 5.0000000000e-05, 4.0000000000e-07
725, 1.1000000000e-04, 5.0000000000e-05, 4.0000000000e-07
726, 1.3000000000e-04, 5.0000000000e-05, 4.0000000000e-07
727, 1.5000000000e-04, 5.0000000000e-05, 4.0000000000e-07
728, 1.7000000000e-04, 5.0000000000e-05, 4.0000000000e-07
729, 1.9000000000e-04, 5.0000000000e-05, 4.0000000000e-07
730, 2.1000000000e-04, 5.0000000000e-05, 4.0000000000e-07
731, 2.3000000000e-04, 5.0000000000e-05, 4.0000000000e-07
732, 2.5000000000e-04, 5.0000000000e-05, 4.0000000000e-07
733, 2.7000000000e-04, 5.0000000000e-05, 4.0000000000e-07
734, 2.9000000000e-04, 5.0000000000e-05, 4.0000000000e-07
735, 3.1000000000e-04, 5.0000000000e-05, 4.0000000000e-07
736, 3.3000000000e-04, 5.0000000000e-05, 4.0000000000e-07
737, 3.5000000000e-04, 5.0000000000e-05, 4.0000000000e-07
738, 3.7000000000e-04, 5.0000000000e-05, 4.0000000000e-07
739, 3.9000000000e-04, 5.0000000000e-05, 4.0000000000e-07
740, 4.1000000000e-04, 5.0000000000e-05, 4.0000000000e-07
741, 4.3000000000e-04, 5.0000000000e-05, 4.0000000000e-07
742, 4.5000000000e-04, 5.0000000000e-05, 4.0000000000e-07
743, 4.7000000000e-04, 5.0000000000e-05, 4.0000000000e-07
744, 4.9000000000e-04, 5.0000000000e-05, 4.0000000000e-07
745, 4.9200000000e-04, 5.0000000000e-05, 4.0000000000e-07
746, 4.9400000000e-04, 5.0000000000e-05, 4.0000000000e-07
747, 4.9600000000e-04, 5.0000000000e-05, 4.0000000000e-07
748, 4.9800000000e-04, 5.0000000000e-05, 4.0000000000e-07
749, 5.0000000000e-04, 5.0000000000e-05, 4.0000000000e-07
750, 5.0200000000e-04, 5.0000000000e-05, 4.0000000000e-07
751, 5.0400000000e-04, 5.0000000000e-05, 4.0000000000e-07
752, 5.0600000000e-04, 5.0000000000e-05, 4.0000000000e-07
753, 5.0800000000e-04, 5.0000000000e-05, 4.0000000000e-07
754, 5.1000000000e-04, 5.0000000000e-05, 4.0000000000e-07
755, 5.2500000000e-04, 5.0000000000e-05, 4.0000000000e-07
756, 5.4000000000e-04, 5.0000000000e-05, 4.0000000000e-07
757, 5.5500000000e-04, 5.0000000000e-05, 4.0000000000e-07
758, 5.7000000000e-04, 5.0000000000e-05, 4.0000000000e-07
759, 5.8500000000e-04, 5.0000000000e-05, 4.0000000000e-07
760, 6.0000000000e-04, 5.0000000000e-05, 4.0000000000e-07
761, 0.0000000000e+00, 0.0000000000e+00, 5.0000000000e-07
762, 1.5000000000e-05, 0.0000000000e+00, 5.0000000000e-07
763, 3.0000000000e-05, 0.0000000000e+00, 5.0000000000e-07
764, 4.5000000000e-05, 0.0000000000e+00, 5.0000000000e-07
765, 6.0000000000e-05, 0.0000000000e+00, 5.0000000000e-07
766, 7.5000000000e-05, 0.0000000000e+00, 5.0000000000e-07
767, 9.0000000000e-05, 0.0000000000e+00, 5.0000000000e-07
768, 9.2000000000e-05, 0.0000000000e+00, 5.0000000000e-07
769, 9.4000000000e-05, 0.0000000000e+00, 5.0000000000e-07
770, 9.6000000000e-05, 0.0000000000e+00, 5.0000000000e-07
771, 9.8000000000e-05, 0.0000000000e+00, 5.0000000000e-07
772, 1.0000000000e-04, 0.0000000000e+00, 5.0000000000e-07
773, 1.0200000000e-04, 0.0000000000e+00, 5.0000000000e-07
774, 1.0400000000e-04, 0.0000000000e+00, 5.0000000000e-07
775, 1.0600000000e-04, 0.0000000000e+00, 5.0000000000e-07
776, 1.0800000000e-04, 0.0000000000e+00, 5.0000000000e-07
777, 1.1000000000e-04, 0.0000000000e+00, 5.0000000000e-07
778, 1.3000000000e-04, 0.0000000000e+00, 5.0000000000e-07
779, 1.5000000000e-04, 0.0000000000e+00, 5.0000000000e-07
780, 1.7000000000e-04, 0.0000000000e+00, 5.0000000000e-07
781, 1.9000000000e-04, 0.0000000000e+00, 5.0000000000e-07
782, 2.1000000000e-04, 0.0000000000e+00, 5.0000000000e-07
783, 2.3000000000e-04, 0.0000000000e+00, 5.0000000000e-07
784, 2.5000000000e-04, 0.0000000000e+00, 5.0000000000e-07
785, 2.7000000000e-04, 0.0000000000e+00, 5.0000000000e-07
786, 2.9000000000e-04, 0.0000000000e+00, 5.0000000000e-07
787, 3.1000000000e-04, 0.0000000000e+00, 5.0000000000e-07
788, 3.3000000000e-04, 0.0000000000e+00, 5.0000000000e-07
789, 3.5000000000e-04, 0.0000000000e+00, 5.0000000000e-07
790, 3.7000000000e-04, 0.0000000000e+00, 5.0000000000e-07
791, 3.9000000000e-04, 0.0000000000e+00, 5.0000000000e-07
792, 4.1000000000e-04, 0.0000000000e+00, 5.0000000000e-07
793, 4.3000000000e-04, 0.0000000000e+00, 5.0000000000e-07
794, 4.5000000000e-04, 0.0000000000e+00, 5.0000000000e-07
795, 4.7000000000e-04, 0.0000000000e+00, 5.0000000000e-07
796, 4.9000000000e-04, 0.0000000000e+00, 5.0000000000e-07
797, 4.9200000000e-04, 0.0000000000e+00, 5.0000000000e-07
798, 4.9400000000e-04, 0.0000000000e+00, 5.0000000000e-07
799, 4.9600000000e-04, 0.0000000000e+00, 5.0000000000e-07
800, 4.9800000000e-04, 0.0000000000e+00, 5.0000000000e-07
801, 5.0000000000e-04, 0.0000000000e+00, 5.0000000000e-07
802, 5.0200000000e-04, 0.0000000000e+00, 5.0000000000e-07
803, 5.0400000000e-04, 0.0000000000e+00, 5.0000000000e-07
804, 5.0600000000e-04, 0.0000000000e+00, 5.0000000000e-07
805, 5.0800000000e-04, 0.0000000000e+00, 5.0000000000e-07
806, 5.1000000000e-04, 0.0000000000e+00, 5.0000000000e-07
807, 5.2500000000e-04, 0.0000000000e+00, 5.0000000000e-07
808, 5.4000000000e-04, 0.0000000000e+00, 5.0000000000e-07
809, 5.5500000000e-04, 0.0000000000e+00, 5.0000000000e-07
810, 5.7000000000e-04, 0.0000000000e+00, 5.0000000000e-07
811, 5.8500000000e-04, 0.0000000000e+00, 5.0000000000e-07
812, 6.0000000000e-04, 0.0000000000e+00, 5.0000000000e-07
813, 0.0000000000e+00, 5.0000000000e-05, 5.0000000000e-07
814, 1.5000000000e-05, 5.0000000000e-05, 5.0000000000e-07
815, 3.0000000000e-05, 5.0000000000e-05, 5.0000000000e-07
816, 4.5000000000e-05, 5.0000000000e-05, 5.0000000000e-07
817, 6.0000000000e-05, 5.0000000000e-05, 5.0000000000e-07
818, 7.5000000000e-05, 5.0000000000e-05, 5.0000000000e-07
819, 9.0000000000e-05, 5.0000000000e-05, 5.0000000000e-07
820, 9.2000000000e-05, 5.0000000000e-05, 5.0000000000e-07
821, 9.4000000000e-05, 5.0000000000e-05, 5.0000000000e-07
822, 9.6000000000e-05, 5.0000000000e-05, 5.0000000000e-07
823, 9.8000000000e-05, 5.0000000000e-05, 5.0000000000e-07
824, 1.0000000000e-04, 5.0000000000e-05, 5.0000000000e-07
825, 1.0200000000e-04, 5.0000000000e-05, 5.0000000000e-07
826, 1.0400000000e-04, 5.0000000000e-05, 5.0000000000e-07
827, 1.0600000000e-04, 5.0000000000e-05, 5.0000000000e-07
828, 1.0800000000e-04, 5.0000000000e-05, 5.0000000000e-07
829, 1.1000000000e-04, 5.0000000000e-05, 5.0000000000e-07
830, 1.3000000000e-04, 5.0000000000e-05, 5.0000000000e-07
831, 1.5000000000e-04, 5.0000000000e-05, 5.0000000000e-07
832, 1.7000000000e-04, 5.0000000000e-05, 5.0000000000e-07
833, 1.9000000000e-04, 5.0000000000e-05, 5.0000000000e-07
834, 2.1000000000e-04, 5.0000000000e-05, 5.0000000000e-07
835, 2.3000000000e-04, 5.0000000000e-05, 5.0000000000e-07
836, 2.5000000000e-04, 5.0000000000e-05, 5.0000000000e-07
837, 2.7000000000e-04, 5.0000000000e-05, 5.0000000000e-07
838, 2.9000000000e-04, 5.0000000000e-05, 5.0000000000e-07
839, 3.1000000000e-04, 5.0000000000e-05, 5.0000000000e-07
840, 3.3000000000e-04, 5.0000000000e-05, 5.0000000000e-07
841, 3.5000000000e-04, 5.0000000000e-05, 5.0000000000e-07
842, 3.7000000000e-04, 5.0000000000e-05, 5.0000000000e-07
843, 3.9000000000e-04, 5.0000000000e-05, 5.0000000000e-07
844, 4.1000000000e-04, 5.0000000000e-05, 5.0000000000e-07
845, 4.3000000000e-04, 5.0000000000e-05, 5.0000000000e-07
846, 4.5000000000e-04, 5.0000000000e-05, 5.0000000000e-07
847, 4.7000000000e-04, 5.0000000000e-05, 5.0000000000e-07
848, 4.9000000000e-04, 5.0000000000e-05, 5.0000000000e-07
849, 4.9200000000e-04, 5.0000000000e-05, 5.0000000000e-07
850, 4.9400000000e-04, 5.0000000000e-05, 5.0000000000e-07
851, 4.9600000000e-04, 5.0000000000e-05, 5.0000000000e-07
852, 4.9800000000e-04, 5.0000000000e-05, 5.0000000000e-07
853, 5.0000000000e-04, 5.0000000000e-05, 5.0000000000e-07
854, 5.0200000000e-04, 5.0000000000e-05, 5.0000000000e-07
855, 5.0400000000e-04, 5.0000000000e-05, 5.0000000000e-07
856, 5.0600000000e-04, 5.0000000000e-05, 5.0000000000e-07
857, 5.0800000000e-04, 5.0000000000e-05, 5.0000000000e-07
858, 5.1000000000e-04, 5.0000000000e-05, 5.0000000000e-07
859, 5.2500000000e-04, 5.0000000000e-05, 5.0000000000e-07
860, 5.4000000000e-04, 5.0000000000e-05, 5.0000000000e-07
861, 5.5500000000e-04, 5.0000000000e-05, 5.0000000000e-07
862, 5.7000000000e-04, 5.0000000000e-05, 5.0000000000e-07
863, 5.8500000000e-04, 5.0000000000e-05, 5.0000000000e-07
864, 6.0000000000e-04, 5.0000000000e-05, 5.0000000000e-07
865, 0.0000000000e+00, 0.0000000000e+00, 6.0000000000e-07
866, 1.5000000000e-05, 0.0000000000e+00, 6.0000000000e-07
867, 3.0000000000e-05, 0.0000000000e+00, 6.0000000000e-07
868, 4.5000000000e-05, 0.0000000000e+00, 6.0000000000e-07
869, 6.0000000000e-05, 0.0000000000e+00, 6.0000000000e-07
870, 7.5000000000e-05, 0.0000000000e+00, 6.0000000000e-07
871, 9.0000000000e-05, 0.0000000000e+00, 6.0000000000e-07
872, 9.2000000000e-05, 0.0000000000e+00, 6.0000000000e-07
873, 9.4000000000e-05, 0.0000000000e+00, 6.0000000000e-07
874, 9.6000000000e-05, 0.0000000000e+00, 6.0000000000e-07
875, 9.8000000000e-05, 0.0000000000e+00, 6.0000000000e-07
876, 1.0000000000e-04, 0.0000000000e+00, 6.0000000000e-07
877, 1.0200000000e-04, 0.0000000000e+00, 6.0000000000e-07
878, 1.0400000000e-04, 0.0000000000e+00, 6.0000000000e-07
879, 1.0600000000e-04, 0.0000000000e+00, 6.0000000000e-07
880, 1.0800000000e-04, 0.0000000000e+00, 6.0000000000e-07
881, 1.1000000000e-04, 0.0000000000e+00, 6.0000000000e-07
882, 1.3000000000e-04, 0.0000000000e+00, 6.0000000000e-07
883, 1.5000000000e-04, 0.0000000000e+00, 6.0000000000e-07
884, 1.7000000000e-04, 0.0000000000e+00, 6.0000000000e-07
885, 1.9000000000e-04, 0.0000000000e+00, 6.0000000000e-07
886, 2.1000000000e-04, 0.0000000000e+00, 6.0000000000e-07
887, 2.3000000000e-04, 0.0000000000e+00, 6.0000000000e-07
888, 2.5000000000e-04, 0.0000000000e+00, 6.0000000000e-07
889, 2.7000000000e-04, 0.0000000000e+00, 6.0000000000e-07
890, 2.9000000000e-04, 0.0000000000e+00, 6.0000000000e-07
891, 3.1000000000e-04, 0.0000000000e+00, 6.0000000000e-07
892, 3.3000000000e-04, 0.0000000000e+00, 6.0000000000e-07
893, 3.5000000000e-04, 0.0000000000e+00, 6.0000000000e-07
894, 3.7000000000e-04, 0.0000000000e+00, 6.0000000000e-07
895, 3.9000000000e-04, 0.0000000000e+00, 6.0000000000e-07
896, 4.1000000000e-04, 0.0000000000e+00, 6.0000000000e-07
897, 4.3000000000e-04, 0.0000000000e+00, 6.0000000000e-07
898, 4.5000000000e-04, 0.0000000000e+00, 6.0000000000e-07
899, 4.7000000000e-04, 0.0000000000e+00, 6.0000000000e-07
900, 4.9000000000e-04, 0.0000000000e+00, 6.0000000000e-07
901, 4.9200000000e-04, 0.0000000000e+00, 6.0000000000e-07
902, 4.9400000000e-04, 0.0000000000e+00, 6.0000000000e-07
903, 4.9600000000e-04, 0.0000000000e+00, 6.0000000000e-07
904, 4.9800000000e-04, 0.0000000000e+00, 6.0000000000e-07
905, 5.0000000000e-04, 0.0000000000e+00, 6.0000000000e-07
906, 5.0200000000e-04, 0.0000000000e+00, 6.0000000000e-07
907, 5.0400000000e-04, 0.0000000000e+00, 6.0000000000e-07
908, 5.0600000000e-04, 0.0000000000e+00, 6.0000000000e-07
909, 5.0800000000e-04, 0.0000000000e+00, 6.0000000000e-07
910, 5.1000000000e-04, 0.0000000000e+00, 6.0000000000e-07
911, 5.2500000000e-04, 0.0000000000e+00, 6.0000000000e-07
912, 5.4000000000e-04, 0.0000000000e+00, 6.0000000000e-07
913, 5.5500000000e-04, 0.0000000000e+00, 6.0000000000e-07
914, 5.7000000000e-04, 0.0000000000e+00, 6.0000000000e-07
915, 5.8500000000e-04, 0.0000000000e+00, 6.0000000000e-07
916, 6.0000000000e-04, 0.0000000000e+00, 6.0000000000e-07
917, 0.0000000000e+00, 5.0000000000e-05, 6.0000000000e-07
918, 1.5000000000e-05, 5.0000000000e-05, 6.0000000000e-07
919, 3.0000000000e-05, 5.0000000000e-05, 6.0000000000e-07
920, 4.5000000000e-05, 5.0000000000e-05, 6.0000000000e-07
921, 6.0000000000e-05, 5.0000000000e-05, 6.0000000000e-07
922, 7.5000000000e-05, 5.0000000000e-05, 6.0000000000e-07
923, 9.0000000000e-05, 5.0000000000e-05, 6.0000000000e-07
924, 9.2000000000e-05, 5.0000000000e-05, 6.0000000000e-07
925, 9.4000000000e-05, 5.0000000000e-05, 6.0000000000e-07
926, 9.6000000000e-05, 5.0000000000e-05, 6.0000000000e-07
927, 9.8000000000e-05, 5.0000000000e-05, 6.0000000000e-07
928, 1.0000000000e-04, 5.0000000000e-05, 6.0000000000e-07
929, 1.0200000000e-04, 5.0000000000e-05, 6.0000000000e-07
930, 1.0400000000e-04, 5.0000000000e-05, 6.0000000000e-07
931, 1.0600000000e-04, 5.0000000000e-05, 6.0000000000e-07
932, 1.0800000000e-04, 5.0000000000e-05, 6.0000000000e-07
933, 1.1000000000e-04, 5.0000000000e-05, 6.0000000000e-07
934, 1.3000000000e-04, 5.0000000000e-05, 6.0000000000e-07
935, 1.5000000000e-04, 5.0000000000e-05, 6.0000000000e-07
936, 1.7000000000e-04, 5.0000000000e-05, 6.0000000000e-07
937, 1.9000000000e-04, 5.0000000000e-05, 6.0000000000e-07
938, 2.1000000000e-04, 5.0000000000e-05, 6.0000000000e-07
939, 2.3000000000e-04, 5.0000000000e-05, 6.0000000000e-07
940, 2.5000000000e-04, 5.0000000000e-05, 6.0000000000e-07
941, 2.7000000000e-04, 5.0000000000e-05, 6.0000000000e-07
942, 2.9000000000e-04, 5.0000000000e-05, 6.0000000000e-07
943, 3.1000000000e-04, 5.0000000000e-05, 6.0000000000e-07
944, 3.3000000000e-04, 5.0000000000e-05, 6.0000000000e-07
945, 3.5000000000e-04, 5.0000000000e-05, 6.0000000000e-07
946, 3.7000000000e-04, 5.0000000000e-05, 6.0000000000e-07
947, 3.9000000000e-04, 5.0000000000e-05, 6.0000000000e-07
948, 4.1000000000e-04, 5.0000000000e-05, 6.0000000000e-07
949, 4.3000000000e-04, 5.0000000000e-05, 6.0000000000e-07
950, 4.5000000000e-04, 5.0000000000e-05, 6.0000000000e-07
951, 4.7000000000e-04, 5.0000000000e-05, 6.0000000000e-07
952, 4.9000000000e-04, 5.0000000000e-05, 6.0000000000e-07
953, 4.9200000000e-04, 5.0000000000e-05, 6.0000000000e-07
954, 4.9400000000e-04, 5.0000000000e-05, 6.0000000000e-07
955, 4.9600000000e-04, 5.0000000000e-05, 6.0000000000e-07
956, 4.9800000000e-04, 5.0000000000e-05, 6.0000000000e-07
957, 5.0000000000e-04, 5.0000000000e-05, 6.0000000000e-07
958, 5.0200000000e-04, 5.0000000000e-05, 6.0000000000e-07
959, 5.0400000000e-04, 5.0000000000e-05, 6.0000000000e-07
960, 5.0600000000e-04, 5.0000000000e-05, 6.0000000000e-07
961, 5.0800000000e-04, 5.0000000000e-05, 6.0000000000e-07
962, 5.1000000000e-04, 5.0000000000e-05, 6.0000000000e-07
963, 5.2500000000e-04, 5.0000000000e-05, 6.0000000000e-07
964, 5.4000000000e-04, 5.0000000000e-05, 6.0000000000e-07
965, 5.5500000000e-04, 5.0000000000e-05, 6.0000000000e-07
966, 5.7000000000e-04, 5.0000000000e-05, 6.0000000000e-07
967, 5.8500000000e-04, 5.0000000000e-05, 6.0000000000e-07
968, 6.0000000000e-04, 5.0000000000e-05, 6.0000000000e-07
969, 0.0000000000e+00, 0.0000000000e+00, 7.0000000000e-07
970, 1.5000000000e-05, 0.0000000000e+00, 7.0000000000e-07
971, 3.0000000000e-05, 0.0000000000e+00, 7.0000000000e-07
972, 4.5000000000e-05, 0.0000000000e+00, 7.0000000000e-07
973, 6.0000000000e-05, 0.0000000000e+00, 7.0000000000e-07
974, 7.5000000000e-05, 0.0000000000e+00, 7.0000000000e-07
975, 9.0000000000e-05, 0.0000000000e+00, 7.0000000000e-07
976, 9.2000000000e-05, 0.0000000000e+00, 7.0000000000e-07
977, 9.4000000000e-05, 0.0000000000e+00, 7.0000000000e-07
978, 9.6000000000e-05, 0.0000000000e+00, 7.0000000000e-07
979, 9.8000000000e-05, 0.0000000000e+00, 7.0000000000e-07
980, 1.0000000000e-04, 0.0000000000e+00, 7.0000000000e-07
981, 1.0200000000e-04, 0.0000000000e+00, 7.0000000000e-07
982, 1.0400000000e-04, 0.0000000000e+00, 7.0000000000e-07
983, 1.0600000000e-04, 0.0000000000e+00, 7.0000000000e-07
984, 1.0800000000e-04, 0.0000000000e+00, 7.0000000000e-07
985, 1.1000000000e-04, 0.0000000000e+00, 7.0000000000e-07
986, 1.3000000000e-04, 0.0000000000e+00, 7.0000000000e-07
987, 1.5000000000e-04, 0.0000000000e+00, 7.0000000000e-07
988, 1.7000000000e-04, 0.0000000000e+00, 7.0000000000e-07
989, 1.9000000000e-04, 0.0000000000e+00, 7.0000000000e-07
990, 2.1000000000e-04, 0.0000000000e+00, 7.0000000000e-07
991, 2.3000000000e-04, 0.0000000000e+00, 7.0000000000e-07
992, 2.5000000000e-04, 0.0000000000e+00, 7.0000000000e-07
993, 2.7000000000e-04, 0.0000000000e+00, 7.0000000000e-07
994, 2.9000000000e-04, 0.0000000000e+00, 7.0000000000e-07
995, 3.1000000000e-04, 0.0000000000e+00, 7.0000000000e-07
996, 3.3000000000e-04, 0.0000000000e+00, 7.0000000000e-07
997, 3.5000000000e-04, 0.0000000000e+00, 7.0000000000e-07
998, 3.7000000000e-04, 0.0000000000e+00, 7.0000000000e-07
999, 3.9000000000e-04, 0.0000000000e+00, 7.0000000000e-07
1000, 4.1000000000e-04, 0.0000000000e+00, 7.0000000000e-07
1001, 4.3000000000e-04, 0.0000000000e+00, 7.0000000000e-07
1002, 4.5000000000e-04, 0.0000000000e+00, 7.0000000000e-07
1003, 4.7000000000e-04, 0.0000000000e+00, 7.0000000000e-07
1004, 4.9000000000e-04, 0.0000000000e+00, 7.0000000000e-07
1005, 4.9200000000e-04, 0.0000000000e+00, 7.0000000000e-07
1006, 4.9400000000e-04, 0.0000000000e+00, 7.0000000000e-07
1007, 4.9600000000e-04, 0.0000000000e+00, 7.0000000000e-07
1008, 4.9800000000e-04, 0.0000000000e+00, 7.0000000000e-07
1009, 5.0000000000e-04, 0.0000000000e+00, 7.0000000000e-07
1010, 5.0200000000e-04, 0.0000000000e+00, 7.0000000000e-07
1011, 5.0400000000e-04, 0.0000000000e+00, 7.0000000000e-07
1012, 5.0600000000e-04, 0.0000000000e+00, 7.0000000000e-07
1013, 5.0800000000e-04, 0.0000000000e+00, 7.0000000000e-07
1014, 5.1000000000e-04, 0.0000000000e+00, 7.0000000000e-07
1015, 5.2500000000e-04, 0.0000000000e+00, 7.0000000000e-07
1016, 5.4000000000e-04, 0.0000000000e+00, 7.0000000000e-07
1017, 5.5500000000e-04, 0.0000000000e+00, 7.0000000000e-07
1018, 5.7000000000e-04, 0.0000000000e+00, 7.0000000000e-07
1019, 5.8500000000e-04, 0.0000000000e+00, 7.0000000000e-07
1020, 6.0000000000e-04, 0.0000000000e+00, 7.0000000000e-07
1021, 0.0000000000e+00, 5.0000000000e-05, 7.0000000000e-07
1022, 1.5000000000e-05, 5.0000000000e-05, 7.0000000000e-07
1023, 3.0000000000e-05, 5.0000000000e-05, 7.0000000000e-07
1024, 4.5000000000e-05, 5.0000000000e-05, 7.0000000000e-07
1025, 6.0000000000e-05, 5.0000000000e-05, 7.0000000000e-07
1026, 7.5000000000e-05, 5.0000000000e-05, 7.0000000000e-07
1027, 9.0000000000e-05, 5.0000000000e-05, 7.0000000000e-07
1028, 9.2000000000e-05, 5.0000000000e-05, 7.0000000000e-07
1029, 9.4000000000e-05, 5.0000000000e-05, 7.0000000000e-07
1030, 9.6000000000e-05, 5.0000000000e-05, 7.0000000000e-07
1031, 9.8000000000e-05, 5.0000000000e-05, 7.0000000000e-07
1032, 1.0000000000e-04, 5.0000000000e-05, 7.0000000000e-07
1033, 1.0200000000e-04, 5.0000000000e-05, 7.0000000000e-07
1034, 1.0400000000e-04, 5.0000000000e-05, 7.0000000000e-07
1035, 1.0600000000e-04, 5.0000000000e-05, 7.0000000000e-07
1036, 1.0800000000e-04, 5.0000000000e-05, 7.0000000000e-07
1037, 1.1000000000e-04, 5.0000000000e-05, 7.0000000000e-07
1038, 1.3000000000e-04, 5.0000000000e-05, 7.0000000000e-07
1039, 1.5000000000e-04, 5.0000000000e-05, 7.0000000000e-07
1040, 1.7000000000e-04, 5.0000000000e-05, 7.0000000000e-07
1041, 1.9000000000e-04, 5.0000000000e-05, 7.0000000000e-07
1042, 2.1000000000e-04, 5.0000000000e-05, 7.0000000000e-07
1043, 2.3000000000e-04, 5.0000000000e-05, 7.0000000000e-07
1044, 2.5000000000e-04, 5.0000000000e-05, 7.0000000000e-07
1045, 2.7000000000e-04, 5.0000000000e-05, 7.0000000000e-07
1046, 2.9000000000e-04, 5.0000000000e-05, 7.0000000000e-07
1047, 3.1000000000e-04, 5.0000000000e-05, 7.0000000000e-07
1048, 3.3000000000e-04, 5.0000000000e-05, 7.0000000000e-07
1049, 3.5000000000e-04, 5.0000000000e-05, 7.0000000000e-07
1050, 3.7000000000e-04, 5.0000000000e-05, 7.0000000000e-07
1051, 3.9000000000e-04, 5.0000000000e-05, 7.0000000000e-07
1052, 4.1000000000e-04, 5.0000000000e-05, 7.0000000000e-07
1053, 4.3000000000e-04, 5.0000000000e-05, 7.0000000000e-07
1054, 4.5000000000e-04, 5.0000000000e-05, 7.0000000000e-07
1055, 4.7000000000e-04, 5.0000000000e-05, 7.0000000000e-07
1056, 4.9000000000e-04, 5.0000000000e-05, 7.0000000000e-07
1057, 4.9200000000e-04, 5.0000000000e-05, 7.0000000000e-07
1058, 4.9400000000e-04, 5.0000000000e-05, 7.0000000000e-07
1059, 4.9600000000e-04, 5.0000000000e-05, 7.0000000000e-07
1060, 4.9800000000e-04, 5.0000000000e-05, 7.0000000000e-07
1061, 5.0000000000e-04, 5.0000000000e-05, 7.0000000000e-07
1062, 5.0200000000e-04, 5.0000000000e-05, 7.0000000000e-07
1063, 5.0400000000e-04, 5.0000000000e-05, 7.0000000000e-07
1064, 5.0600000000e-04, 5.0000000000e-05, 7.0000000000e-07
1065, 5.0800000000e-04, 5.0000000000e-05, 7.0000000000e-07
1066, 5.1000000000e-04, 5.0000000000e-05, 7.0000000000e-07
1067, 5.2500000000e-04, 5.0000000000e-05, 7.0000000000e-07
1068, 5.4000000000e-04, 5.0000000000e-05, 7.0000000000e-07
1069, 5.5500000000e-04, 5.0000000000e-05, 7.0000000000e-07
1070, 5.7000000000e-04, 5.0000000000e-05, 7.0000000000e-07
1071, 5.8500000000e-04, 5.0000000000e-05, 7.0000000000e-07
1072, 6.0000000000e-04, 5.0000000000e-05, 7.0000000000e-07
1073, 0.0000000000e+00, 0.0000000000e+00, 8.0000000000e-07
1074, 1.5000000000e-05, 0.0000000000e+00, 8.0000000000e-07
1075, 3.0000000000e-05, 0.0000000000e+00, 8.0000000000e-07
1076, 4.5000000000e-05, 0.0000000000e+00, 8.0000000000e-07
1077, 6.0000000000e-05, 0.0000000000e+00, 8.0000000000e-07
1078, 7.5000000000e-05, 0.0000000000e+00, 8.0000000000e-07
1079, 9.0000000000e-05, 0.0000000000e+00, 8.0000000000e-07
1080, 9.2000000000e-05, 0.0000000000e+00, 8.0000000000e-07
1081, 9.4000000000e-05, 0.0000000000e+00, 8.0000000000e-07
1082, 9.6000000000e-05, 0.0000000000e+00, 8.0000000000e-07
1083, 9.8000000000e-05, 0.0000000000e+00, 8.0000000000e-07
1084, 1.0000000000e-04, 0.0000000000e+00, 8.0000000000e-07
1085, 1.0200000000e-04, 0.0000000000e+00, 8.0000000000e-07
1086, 1.0400000000e-04, 0.0000000000e+00, 8.0000000000e-07
1087, 1.0600000000e-04, 0.0000000000e+00, 8.0000000000e-07
1088, 1.0800000000e-04, 0.0000000000e+00, 8.0000000000e-07
1089, 1.1000000000e-04, 0.0000000000e+00, 8.0000000000e-07
1090, 1.3000000000e-04, 0.0000000000e+00, 8.0000000000e-07
1091, 1.5000000000e-04, 0.0000000000e+00, 8.0000000000e-07
1092, 1.7000000000e-04, 0.0000000000e+00, 8.0000000000e-07
1093, 1.9000000000e-04, 0.0000000000e+00, 8.0000000000e-07
1094, 2.1000000000e-04, 0.0000000000e+00, 8.0000000000e-07
1095, 2.3000000000e-04, 0.0000000000e+00, 8.0000000000e-07
1096, 2.5000000000e-04, 0.0000000000e+00, 8.0000000000e-07
1097, 2.7000000000e-04, 0.0000000000e+00, 8.0000000000e-07
1098, 2.9000000000e-04, 0.0000000000e+00, 8.0000000000e-07
1099, 3.1000000000e-04, 0.0000000000e+00, 8.0000000000e-07
1100, 3.3000000000e-04, 0.0000000000e+00, 8.0000000000e-07
1101, 3.5000000000e-04, 0.0000000000e+00, 8.0000000000e-07
1102, 3.7000000000e-04, 0.0000000000e+00, 8.0000000000e-07
1103, 3.9000000000e-04, 0.0000000000e+00, 8.0000000000e-07
1104, 4.1000000000e-04, 0.0000000000e+00, 8.0000000000e-07
1105, 4.3000000000e-04, 0.0000000000e+00, 8.0000000000e-07
1106, 4.5000000000e-04, 0.0000000000e+00, 8.0000000000e-07
1107, 4.7000000000e-04, 0.0000000000e+00, 8.0000000000e-07
1108, 4.9000000000e-04, 0.0000000000e+00, 8.0000000000e-07
1109, 4.9200000000e-04, 0.0000000000e+00, 8.0000000000e-07
1110, 4.9400000000e-04, 0.0000000000e+00, 8.0000000000e-07
1111, 4.9600000000e-04, 0.0000000000e+00, 8.0000000000e-07
1112, 4.9800000000e-04, 0.0000000000e+00, 8.0000000000e-07
1113, 5.0000000000e-04, 0.0000000000e+00, 8.0000000000e-07
1114, 5.0200000000e-04, 0.0000000000e+00, 8.0000000000e-07
1115, 5.0400000000e-04, 0.0000000000e+00, 8.0000000000e-07
1116, 5.0600000000e-04, 0.0000000000e+00, 8.0000000000e-07
1117, 5.0800000000e-04, 0.0000000000e+00, 8.0000000000e-07
1118, 5.1000000000e-04, 0.0000000000e+00, 8.0000000000e-07
1119, 5.2500000000e-04, 0.0000000000e+00, 8.0000000000e-07
1120, 5.4000000000e-04, 0.0000000000e+00, 8.0000000000e-07
1121, 5.5500000000e-04, 0.0000000000e+00, 8.0000000000e-07
1122, 5.7000000000e-04, 0.0000000000e+00, 8.0000000000e-07
1123, 5.8500000000e-04, 0.0000000000e+00, 8.0000000000e-07
1124, 6.0000000000e-04, 0.0000000000e+00, 8.0000000000e-07
1125, 0.0000000000e+00, 5.0000000000e-05, 8.0000000000e-07
1126, 1.5000000000e-05, 5.0000000000e-05, 8.0000000000e-07
1127, 3.0000000000e-05, 5.0000000000e-05, 8.0000000000e-07
1128, 4.5000000000e-05, 5.0000000000e-05, 8.0000000000e-07
1129, 6.0000000000e-05, 5.0000000000e-05, 8.0000000000e-07
1130, 7.5000000000e-05, 5.0000000000e-05, 8.0000000000e-07
1131, 9.0000000000e-05, 5.0000000000e-05, 8.0000000000e-07
1132, 9.2000000000e-05, 5.0000000000e-05, 8.0000000000e-07
1133, 9.4000000000e-05, 5.0000000000e-05, 8.0000000000e-07
1134, 9.6000000000e-05, 5.0000000000e-05, 8.0000000000e-07
1135, 9.8000000000e-05, 5.0000000000e-05, 8.0000000000e-07
1136, 1.0000000000e-04, 5.0000000000e-05, 8.0000000000e-07
1137, 1.0200000000e-04, 5.0000000000e-05, 8.0000000000e-07
1138, 1.0400000000e-04, 5.0000000000e-05, 8.0000000000e-07
1139, 1.0600000000e-04, 5.0000000000e-05, 8.0000000000e-07
1140, 1.0800000000e-04, 5.0000000000e-05, 8.0000000000e-07
1141, 1.1000000000e-04, 5.0000000000e-05, 8.0000000000e-07
1142, 1.3000000000e-04, 5.0000000000e-05, 8.0000000000e-07
1143, 1.5000000000e-04, 5.0000000000e-05, 8.0000000000e-07
1144, 1.7000000000e-04, 5.0000000000e-05, 8.0000000000e-07
1145, 1.9000000000e-04, 5.0000000000e-05, 8.0000000000e-07
1146, 2.1000000000e-04, 5.0000000000e-05, 8.0000000000e-07
1147, 2.3000000000e-04, 5.0000000000e-05, 8.0000000000e-07
1148, 2.5000000000e-04, 5.0000000000e-05, 8.0000000000e-07
1149, 2.7000000000e-04, 5.0000000000e-05, 8.0000000000e-07
1150, 2.9000000000e-04, 5.0000000000e-05, 8.0000000000e-07
1151, 3.1000000000e-04, 5.0000000000e-05, 8.0000000000e-07
1152, 3.3000000000e-04, 5.0000000000e-05, 8.0000000000e-07
1153, 3.5000000000e-04, 5.0000000000e-05, 8.0000000000e-07
1154, 3.7000000000e-04, 5.0000000000e-05, 8.0000000000e-07
1155, 3.9000000000e-04, 5.0000000000e-05, 8.0000000000e-07
1156, 4.1000000000e-04, 5.0000000000e-05, 8.0000000000e-07
1157, 4.3000000000e-04, 5.0000000000e-05, 8.0000000000e-07
1158, 4.5000000000e-04, 5.0000000000e-05, 8.0000000000e-07
1159, 4.7000000000e-04, 5.0000000000e-05, 8.0000000000e-07
1160, 4.9000000000e-04, 5.0000000000e-05, 8.0000000000e-07
1161, 4.9200000000e-04, 5.0000000000e-05, 8.0000000000e-07
1162, 4.9400000000e-04, 5.0000000000e-05, 8.0000000000e-07
1163, 4.9600000000e-04, 5.0000000000e-05, 8.0000000000e-07
1164, 4.9800000000e-04, 5.0000000000e-05, 8.0000000000e-07
1165, 5.0000000000e-04, 5.0000000000e-05, 8.0000000000e-07
1166, 5.0200000000e-04, 5.0000000000e-05, 8.0000000000e-07
1167, 5.0400000000e-04, 5.0000000000e-05, 8.0000000000e-07
1168, 5.0600000000e-04, 5.0000000000e-05, 8.0000000000e-07
1169, 5.0800000000e-04, 5.0000000000e-05, 8.0000000000e-07
1170, 5.1000000000e-04, 5.0000000000e-05, 8.0000000000e-07
1171, 5.2500000000e-04, 5.0000000000e-05, 8.0000000000e-07
1172, 5.4000000000e-04, 5.0000000000e-05, 8.0000000000e-07
1173, 5.5500000000e-04, 5.0000000000e-05, 8.0000000000e-07
1174, 5.7000000000e-04, 5.0000000000e-05, 8.0000000000e-07
1175, 5.8500000000e-04, 5.0000000000e-05, 8.0000000000e-07
1176, 6.0000000000e-04, 5.0000000000e-05, 8.0000000000e-07
1177, 0.0000000000e+00, 0.0000000000e+00, 9.0000000000e-07
1178, 1.5000000000e-05, 0.0000000000e+00, 9.0000000000e-07
1179, 3.0000000000e-05, 0.0000000000e+00, 9.0000000000e-07
1180, 4.5000000000e-05, 0.0000000000e+00, 9.0000000000e-07
1181, 6.0000000000e-05, 0.0000000000e+00, 9.0000000000e-07
1182, 7.5000000000e-05, 0.0000000000e+00, 9.0000000000e-07
1183, 9.0000000000e-05, 0.0000000000e+00, 9.0000000000e-07
1184, 9.2000000000e-05, 0.0000000000e+00, 9.0000000000e-07
1185, 9.4000000000e-05, 0.0000000000e+00, 9.0000000000e-07
1186, 9.6000000000e-05, 0.0000000000e+00, 9.0000000000e-07
1187, 9.8000000000e-05, 0.0000000000e+00, 9.0000000000e-07
1188, 1.0000000000e-04, 0.0000000000e+00, 9.0000000000e-07
1189, 1.0200000000e-04, 0.0000000000e+00, 9.0000000000e-07
1190, 1.0400000000e-04, 0.0000000000e+00, 9.0000000000e-07
1191, 1.0600000000e-04, 0.0000000000e+00, 9.0000000000e-07
1192, 1.0800000000e-04, 0.0000000000e+00, 9.0000000000e-07
1193, 1.1000000000e-04, 0.0000000000e+00, 9.0000000000e-07
1194, 1.3000000000e-04, 0.0000000000e+00, 9.0000000000e-07
1195, 1.5000000000e-04, 0.0000000000e+00, 9.0000000000e-07
1196, 1.7000000000e-04, 0.0000000000e+00, 9.0000000000e-07
1197, 1.9000000000e-04, 0.0000000000e+00, 9.0000000000e-07
1198, 2.1000000000e-04, 0.0000000000e+00, 9.0000000000e-07
1199, 2.3000000000e-04, 0.0000000000e+00, 9.0000000000e-07
1200, 2.5000000000e-04, 0.0000000000e+00, 9.0000000000e-07
1201, 2.7000000000e-04, 0.0000000000e+00, 9.0000000000e-07
1202, 2.9000000000e-04, 0.0000000000e+00, 9.0000000000e-07
1203, 3.1000000000e-04, 0.0000000000e+00, 9.0000000000e-07
1204, 3.3000000000e-04, 0.0000000000e+00, 9.0000000000e-07
1205, 3.5000000000e-04, 0.0000000000e+00, 9.0000000000e-07
1206, 3.7000000000e-04, 0.0000000000e+00, 9.0000000000e-07
1207, 3.9000000000e-04, 0.0000000000e+00, 9.0000000000e-07
1208, 4.1000000000e-04, 0.0000000000e+00, 9.0000000000e-07
1209, 4.3000000000e-04, 0.0000000000e+00, 9.0000000000e-07
1210, 4.5000000000e-04, 0.0000000000e+00, 9.0000000000e-07
1211, 4.7000000000e-04, 0.0000000000e+00, 9.0000000000e-07
1212, 4.9000000000e-04, 0.0000000000e+00, 9.0000000000e-07
1213, 4.9200000000e-04, 0.0000000000e+00, 9.0000000000e-07
1214, 4.9400000000e-04, 0.0000000000e+00, 9.0000000000e-07
1215, 4.9600000000e-04, 0.0000000000e+00, 9.0000000000e-07
1216, 4.9800000000e-04, 0.0000000000e+00, 9.0000000000e-07
1217, 5.0000000000e-04, 0.0000000000e+00, 9.0000000000e-07
1218, 5.0200000000e-04, 0.0000000000e+00, 9.0000000000e-07
1219, 5.0400000000e-04, 0.0000000000e+00, 9.0000000000e-07
1220, 5.0600000000e-04, 0.0000000000e+00, 9.0000000000e-07
1221, 5.0800000000e-04, 0.0000000000e+00, 9.0000000000e-07
1222, 5.1000000000e-04, 0.0000000000e+00, 9.0000000000e-07
1223, 5.2500000000e-04, 0.0000000000e+00, 9.0000000000e-07
1224, 5.4000000000e-04, 0.0000000000e+00, 9.0000000000e-07
1225, 5.5500000000e-04, 0.0000000000e+00, 9.0000000000e-07
1226, 5.7000000000e-04, 0.0000000000e+00, 9.0000000000e-07
1227, 5.8500000000e-04, 0.0000000000e+00, 9.0000000000e-07
1228, 6.0000000000e-04, 0.0000000000e+00, 9.0000000000e-07
1229, 0.0000000000e+00, 5.0000000000e-05, 9.0000000000e-07
1230, 1.5000000000e-05, 5.0000000000e-05, 9.0000000000e-07
1231, 3.0000000000e-05, 5.0000000000e-05, 9.0000000000e-07
1232, 4.5000000000e-05, 5.0000000000e-05, 9.0000000000e-07
1233, 6.0000000000e-05, 5.0000000000e-05, 9.0000000000e-07
1234, 7.5000000000e-05, 5.0000000000e-05, 9.0000000000e-07
1235, 9.0000000000e-05, 5.0000000000e-05, 9.0000000000e-07
1236, 9.2000000000e-05, 5.0000000000e-05, 9.0000000000e-07
1237, 9.4000000000e-05, 5.0000000000e-05, 9.0000000000e-07
1238, 9.6000000000e-05, 5.0000000000e-05, 9.0000000000e-07
1239, 9.8000000000e-05, 5.0000000000e-05, 9.0000000000e-07
1240, 1.0000000000e-04, 5.0000000000e-05, 9.0000000000e-07
1241, 1.0200000000e-04, 5.0000000000e-05, 9.0000000000e-07
1242, 1.0400000000e-04, 5.0000000000e-05, 9.0000000000e-07
1243, 1.0600000000e-04, 5.0000000000e-05, 9.0000000000e-07
1244, 1.0800000000e-04, 5.0000000000e-05, 9.0000000000e-07
1245, 1.1000000000e-04, 5.0000000000e-05, 9.0000000000e-07
1246, 1.3000000000e-04, 5.0000000000e-05, 9.0000000000e-07
1247, 1.5000000000e-04, 5.0000000000e-05, 9.0000000000e-07
1248, 1.7000000000e-04, 5.0000000000e-05, 9.0000000000e-07
1249, 1.9000000000e-04, 5.0000000000e-05, 9.0000000000e-07
1250, 2.1000000000e-04, 5.0000000000e-05, 9.0000000000e-07
1251, 2.3000000000e-04, 5.0000000000e-05, 9.0000000000e-07
1252, 2.5000000000e-04, 5.0000000000e-05, 9.0000000000e-07
1253, 2.7000000000e-04, 5.0000000000e-05, 9.0000000000e-07
1254, 2.9000000000e-04, 5.0000000000e-05, 9.0000000000e-07
1255, 3.1000000000e-04, 5.0000000000e-05, 9.0000000000e-07
1256, 3.3000000000e-04, 5.0000000000e-05, 9.0000000000e-07
1257, 3.5000000000e-04, 5.0000000000e-05, 9.0000000000e-07
1258, 3.7000000000e-04, 5.0000000000e-05, 9.0000000000e-07
1259, 3.9000000000e-04, 5.0000000000e-05, 9.0000000000e-07
1260, 4.1000000000e-04, 5.0000000000e-05, 9.0000000000e-07
1261, 4.3000000000e-04, 5.0000000000e-05, 9.0000000000e-07
1262, 4.5000000000e-04, 5.0000000000e-05, 9.0000000000e-07
1263, 4.7000000000e-04, 5.0000000000e-05, 9.0000000000e-07
1264, 4.9000000000e-04, 5.0000000000e-05, 9.0000000000e-07
1265, 4.9200000000e-04, 5.0000000000e-05, 9.0000000000e-07
1266, 4.9400000000e-04, 5.0000000000e-05, 9.0000000000e-07
1267, 4.9600000000e-04, 5.0000000000e-05, 9.0000000000e-07
1268, 4.9800000000e-04, 5.0000000000e-05, 9.0000000000e-07
1269, 5.0000000000e-04, 5.0000000000e-05, 9.0000000000e-07
1270, 5.0200000000e-04, 5.0000000000e-05, 9.0000000000e-07
1271, 5.0400000000e-04, 5.0000000000e-05, 9.0000000000e-07
1272, 5.0600000000e-04, 5.0000000000e-05, 9.0000000000e-07
1273, 5.0800000000e-04, 5.0000000000e-05, 9.0000000000e-07
1274, 5.1000000000e-04, 5.0000000000e-05, 9.0000000000e-07
1275, 5.2500000000e-04, 5.0000000000e-05, 9.0000000000e-07
1276, 5.4000000000e-04, 5.0000000000e-05, 9.0000000000e-07
1277, 5.5500000000e-04, 5.0000000000e-05, 9.0000000000e-07
1278, 5.7000000000e-04, 5.0000000000e-05, 9.0000000000e-07
1279, 5.8500000000e-04, 5.0000000000e-05, 9.0000000000e-07
1280, 6.0000000000e-04, 5.0000000000e-05, 9.0000000000e-07
1281, 0.0000000000e+00, 0.0000000000e+00, 1.0000000000e-06
1282, 1.5000000000e-05, 0.0000000000e+00, 1.0000000000e-06
1283, 3.0000000000e-05, 0.0000000000e+00, 1.0000000000e-06
1284, 4.5000000000e-05, 0.0000000000e+00, 1.0000000000e-06
1285, 6.0000000000e-05, 0.0000000000e+00, 1.0000000000e-06
1286, 7.5000000000e-05, 0.0000000000e+00, 1.0000000000e-06
1287, 9.0000000000e-05, 0.0000000000e+00, 1.0000000000e-06
1288, 9.2000000000e-05, 0.0000000000e+00, 1.0000000000e-06
1289, 9.4000000000e-05, 0.0000000000e+00, 1.0000000000e-06
1290, 9.6000000000e-05, 0.0000000000e+00, 1.0000000000e-06
1291, 9.8000000000e-05, 0.0000000000e+00, 1.0000000000e-06
1292, 1.0000000000e-04, 0.0000000000e+00, 1.0000000000e-06
1293, 1.0200000000e-04, 0.0000000000e+00, 1.0000000000e-06
1294, 1.0400000000e-04, 0.0000000000e+00, 1.0000000000e-06
1295, 1.0600000000e-04, 0.0000000000e+00, 1.0000000000e-06
1296, 1.0800000000e-04, 0.0000000000e+00, 1.0000000000e-06
1297, 1.1000000000e-04, 0.0000000000e+00, 1.0000000000e-06
1298, 1.3000000000e-04, 0.0000000000e+00, 1.0000000000e-06
1299, 1.5000000000e-04, 0.0000000000e+00, 1.0000000000e-06
1300, 1.7000000000e-04, 0.0000000000e+00, 1.0000000000e-06
1301, 1.9000000000e-04, 0.0000000000e+00, 1.0000000000e-06
1302, 2.1000000000e-04, 0.0000000000e+00, 1.0000000000e-06
1303, 2.3000000000e-04, 0.0000000000e+00, 1.0000000000e-06
1304, 2.5000000000e-04, 0.0000000000e+00, 1.0000000000e-06
1305, 2.7000000000e-04, 0.0000000000e+00, 1.0000000000e-06
1306, 2.9000000000e-04, 0.0000000000e+00, 1.0000000000e-06
1307, 3.1000000000e-04, 0.0000000000e+00, 1.0000000000e-06
1308, 3.3000000000e-04, 0.0000000000e+00, 1.0000000000e-06
1309, 3.5000000000e-04, 0.0000000000e+00, 1.0000000000e-06
1310, 3.7000000000e-04, 0.0000000000e+00, 1.0000000000e-06
1311, 3.9000000000e-04, 0.0000000000e+00, 1.0000000000e-06
1312, 4.1000000000e-04, 0.0000000000e+00, 1.0000000000e-06
1313, 4.3000000000e-04, 0.0000000000e+00, 1.0000000000e-06
1314, 4.5000000000e-04, 0.0000000000e+00, 1.0000000000e-06
1315, 4.7000000000e-04, 0.0000000000e+00, 1.0000000000e-06
1316, 4.9000000000e-04, 0.0000000000e+00, 1.0000000000e-06
1317, 4.9200000000e-04, 0.0000000000e+00, 1.0000000000e-06
1318, 4.9400000000e-04, 0.0000000000e+00, 1.0000000000e-06
1319, 4.9600000000e-04, 0.0000000000e+00, 1.0000000000e-06
1320, 4.9800000000e-04, 0.0000000000e+00, 1.0000000000e-06
1321, 5.0000000000e-04, 0.0000000000e+00, 1.0000000000e-06
1322, 5.0200000000e-04, 0.0000000000e+00, 1.0000000000e-06
1323, 5.0400000000e-04, 0.0000000000e+00, 1.0000000000e-06
1324, 5.0600000000e-04, 0.0000000000e+00, 1.0000000000e-06
1325, 5.0800000000e-04, 0.0000000000e+00, 1.0000000000e-06
1326, 5.1000000000e-04, 0.0000000000e+00, 1.0000000000e-06
1327, 5.2500000000e-04, 0.0000000000e+00, 1.0000000000e-06
1328, 5.4000000000e-04, 0.0000000000e+00, 1.0000000000e-06
1329, 5.5500000000e-04, 0.0000000000e+00, 1.0000000000e-06
1330, 5.7000000000e-04, 0.0000000000e+00, 1.0000000000e-06
1331, 5.8500000000e-04, 0.0000000000e+00, 1.0000000000e-06
1332, 6.0000000000e-04, 0.0000000000e+00, 1.0000000000e-06
1333, 0.0000000000e+00, 5.0000000000e-05, 1.0000000000e-06
1334, 1.5000000000e-05, 5.0000000000e-05, 1.0000000000e-06
1335, 3.0000000000e-05, 5.0000000000e-05, 1.0000000000e-06
1336, 4.5000000000e-05, 5.0000000000e-05, 1.0000000000e-06
1337, 6.0000000000e-05, 5.0000000000e-05, 1.0000000000e-06
1338, 7.5000000000e-05, 5.0000000000e-05, 1.0000000000e-06
1339, 9.0000000000e-05, 5.0000000000e-05, 1.0000000000e-06
1340, 9.2000000000e-05, 5.0000000000e-05, 1.0000000000e-06
1341, 9.4000000000e-05, 5.0000000000e-05, 1.0000000000e-06
1342, 9.6000000000e-05, 5.0000000000e-05, 1.0000000000e-06
1343, 9.8000000000e-05, 5.0000000000e-05, 1.0000000000e-06
1344, 1.0000000000e-04, 5.0000000000e-05, 1.0000000000e-06
1345, 1.0200000000e-04, 5.0000000000e-05, 1.0000000000e-06
1346, 1.0400000000e-04, 5.0000000000e-05, 1.0000000000e-06
1347, 1.0600000000e-04, 5.0000000000e-05, 1.0000000000e-06
1348, 1.0800000000e-04, 5.0000000000e-05, 1.0000000000e-06
1349, 1.1000000000e-04, 5.0000000000e-05, 1.0000000000e-06
1350, 1.3000000000e-04, 5.0000000000e-05, 1.0000000000e-06
1351, 1.5000000000e-04, 5.0000000000e-05, 1.0000000000e-06
1352, 1.7000000000e-04, 5.0000000000e-05, 1.0000000000e-06
1353, 1.9000000000e-04, 5.0000000000e-05, 1.0000000000e-06
1354, 2.1000000000e-04, 5.0000000000e-05, 1.0000000000e-06
1355, 2.3000000000e-04, 5.0000000000e-05, 1.0000000000e-06
1356, 2.5000000000e-04, 5.0000000000e-05, 1.0000000000e-06
1357, 2.7000000000e-04, 5.0000000000e-05, 1.0000000000e-06
1358, 2.9000000000e-04, 5.0000000000e-05, 1.0000000000e-06
1359, 3.1000000000e-04, 5.0000000000e-05, 1.0000000000e-06
1360, 3.3000000000e-04, 5.0000000000e-05, 1.0000000000e-06
1361, 3.5000000000e-04, 5.0000000000e-05, 1.0000000000e-06
1362, 3.7000000000e-04, 5.0000000000e-05, 1.0000000000e-06
1363, 3.9000000000e-04, 5.0000000000e-05, 1.0000000000e-06
1364, 4.1000000000e-04, 5.0000000000e-05, 1.0000000000e-06
1365, 4.3000000000e-04, 5.0000000000e-05, 1.0000000000e-06
1366, 4.5000000000e-04, 5.0000000000e-05, 1.0000000000e-06
1367, 4.7000000000e-04, 5.0000000000e-05, 1.0000000000e-06
1368, 4.9000000000e-04, 5.0000000000e-05, 1.0000000000e-06
1369, 4.9200000000e-04, 5.0000000000e-05, 1.0000000000e-06
1370, 4.9400000000e-04, 5.0000000000e-05, 1.0000000000e-06
1371, 4.9600000000e-04, 5.0000000000e-05, 1.0000000000e-06
1372, 4.9800000000e-04, 5.0000000000e-05, 1.0000000000e-06
1373, 5.0000000000e-04, 5.0000000000e-05, 1.0000000000e-06
1374, 5.0200000000e-04, 5.0000000000e-05, 1.0000000000e-06
1375, 5.0400000000e-04, 5.0000000000e-05, 1.0000000000e-06
1376, 5.0600000000e-04, 5.0000000000e-05, 1.0000000000e-06
1377, 5.0800000000e-04, 5.0000000000e-05, 1.0000000000e-06
1378, 5.1000000000e-04, 5.0000000000e-05, 1.0000000000e-06
1379, 5.2500000000e-04, 5.0000000000e-05, 1.0000000000e-06
1380, 5.4000000000e-04, 5.0000000000e-05, 1.0000000000e-06
1381, 5.5500000000e-04, 5.0000000000e-05, 1.0000000000e-06
1382, 5.7000000000e-04, 5.0000000000e-05, 1.0000000000e-06
1383, 5.8500000000e-04, 5.0000000000e-05, 1.0000000000e-06
1384, 6.0000000000e-04, 5.0000000000e-05, 1.0000000000e-06
1385, 0.0000000000e+00, 0.0000000000e+00, 1.4000000000e-06
1386, 1.5000000000e-05, 0.0000000000e+00, 1.4000000000e-06
1387, 3.0000000000e-05, 0.0000000000e+00, 1.4000000000e-06
1388, 4.5000000000e-05, 0.0000000000e+00, 1.4000000000e-06
1389, 6.0000000000e-05, 0.0000000000e+00, 1.4000000000e-06
1390, 7.5000000000e-05, 0.0000000000e+00, 1.4000000000e-06
1391, 9.0000000000e-05, 0.0000000000e+00, 1.4000000000e-06
1392, 9.2000000000e-05, 0.0000000000e+00, 1.4000000000e-06
1393, 9.4000000000e-05, 0.0000000000e+00, 1.4000000000e-06
1394, 9.6000000000e-05, 0.0000000000e+00, 1.4000000000e-06
1395, 9.8000000000e-05, 0.0000000000e+00, 1.4000000000e-06
1396, 1.0000000000e-04, 0.0000000000e+00, 1.4000000000e-06
1397, 1.0200000000e-04, 0.0000000000e+00, 1.4000000000e-06
1398, 1.0400000000e-04, 0.0000000000e+00, 1.4000000000e-06
1399, 1.0600000000e-04, 0.0000000000e+00, 1.4000000000e-06
1400, 1.0800000000e-04, 0.0000000000e+00, 1.4000000000e-06
1401, 1.1000000000e-04, 0.0000000000e+00, 1.4000000000e-06
1402, 1.3000000000e-04, 0.0000000000e+00, 1.4000000000e-06
1403, 1.5000000000e-04, 0.0000000000e+00, 1.4000000000e-06
1404, 1.7000000000e-04, 0.0000000000e+00, 1.4000000000e-06
1405, 1.9000000000e-04, 0.0000000000e+00, 1.4000000000e-06
1406, 2.1000000000e-04, 0.0000000000e+00, 1.4000000000e-06
1407, 2.3000000000e-04, 0.0000000000e+00, 1.4000000000e-06
1408, 2.5000000000e-04, 0.0000000000e+00, 1.4000000000e-06
1409, 2.7000000000e-04, 0.0000000000e+00, 1.4000000000e-06
1410, 2.9000000000e-04, 0.0000000000e+00, 1.4000000000e-06
1411, 3.1000000000e-04, 0.0000000000e+00, 1.4000000000e-06
1412, 3.3000000000e-04, 0.0000000000e+00, 1.4000000000e-06
1413, 3.5000000000e-04, 0.0000000000e+00, 1.4000000000e-06
1414, 3.7000000000e-04, 0.0000000000e+00, 1.4000000000e-06
1415, 3.9000000000e-04, 0.0000000000e+00, 1.4000000000e-06
1416, 4.1000000000e-04, 0.0000000000e+00, 1.4000000000e-06
1417, 4.3000000000e-04, 0.0000000000e+00, 1.4000000000e-06
1418, 4.5000000000e-04, 0.0000000000e+00, 1.4000000000e-06
1419, 4.7000000000e-04, 0.0000000000e+00, 1.4000000000e-06
1420, 4.9000000000e-04, 0.0000000000e+00, 1.4000000000e-06
1421, 4.9200000000e-04, 0.0000000000e+00, 1.4000000000e-06
1422, 4.9400000000e-04, 0.0000000000e+00, 1.4000000000e-06
1423, 4.9600000000e-04, 0.0000000000e+00, 1.4000000000e-06
1424, 4.9800000000e-04, 0.0000000000e+00, 1.4000000000e-06
1425, 5.0000000000e-04, 0.0000000000e+00, 1.4000000000e-06
1426, 5.0200000000e-04, 0.0000000000e+00, 1.4000000000e-06
1427, 5.0400000000e-04, 0.0000000000e+00, 1.4000000000e-06
1428, 5.0600000000e-04, 0.0000000000e+00, 1.4000000000e-06
1429, 5.0800000000e-04, 0.0000000000e+00, 1.4000000000e-06
1430, 5.1000000000e-04, 0.0000000000e+00, 1.4000000000e-06
1431, 5.2500000000e-04, 0.0000000000e+00, 1.4000000000e-06
1432, 5.4000000000e-04, 0.0000000000e+00, 1.4000000000e-06
1433, 5.5500000000e-04, 0.0000000000e+00, 1.4000000000e-06
1434, 5.7000000000e-04, 0.0000000000e+00, 1.4000000000e-06
1435, 5.8500000000e-04, 0.0000000000e+00, 1.4000000000e-06
1436, 6.0000000000e-04, 0.0000000000e+00, 1.4000000000e-06
1437, 0.0000000000e+00, 5.0000000000e-05, 1.4000000000e-06
1438, 1.5000000000e-05, 5.0000000000e-05, 1.4000000000e-06
1439, 3.0000000000e-05, 5.0000000000e-05, 1.4000000000e-06
1440, 4.5000000000e-05, 5.0000000000e-05, 1.4000000000e-06
1441, 6.0000000000e-05, 5.0000000000e-05, 1.4000000000e-06
1442, 7.5000000000e-05, 5.0000000000e-05, 1.4000000000e-06
1443, 9.0000000000e-05, 5.0000000000e-05, 1.4000000000e-06
1444, 9.2000000000e-05, 5.0000000000e-05, 1.4000000000e-06
1445, 9.4000000000e-05, 5.0000000000e-05, 1.4000000000e-06
1446, 9.6000000000e-05, 5.0000000000e-05, 1.4000000000e-06
1447, 9.8000000000e-05, 5.0000000000e-05, 1.4000000000e-06
1448, 1.0000000000e-04, 5.0000000000e-05, 1.4000000000e-06
1449, 1.0200000000e-04, 5.0000000000e-05, 1.4000000000e-06
1450, 1.0400000000e-04, 5.0000000000e-05, 1.4000000000e-06
1451, 1.0600000000e-04, 5.0000000000e-05, 1.4000000000e-06
1452, 1.0800000000e-04, 5.0000000000e-05, 1.4000000000e-06
1453, 1.1000000000e-04, 5.0000000000e-05, 1.4000000000e-06
1454, 1.3000000000e-04, 5.0000000000e-05, 1.4000000000e-06
1455, 1.5000000000e-04, 5.0000000000e-05, 1.4000000000e-06
1456, 1.7000000000e-04, 5.0000000000e-05, 1.4000000000e-06
1457, 1.9000000000e-04, 5.0000000000e-05, 1.4000000000e-06
1458, 2.1000000000e-04, 5.0000000000e-05, 1.4000000000e-06
1459, 2.3000000000e-04, 5.0000000000e-05, 1.4000000000e-06
1460, 2.5000000000e-04, 5.0000000000e-05, 1.4000000000e-06
1461, 2.7000000000e-04, 5.0000000000e-05, 1.4000000000e-06
1462, 2.9000000000e-04, 5.0000000000e-05, 1.4000000000e-06
1463, 3.1000000000e-04, 5.0000000000e-05, 1.4000000000e-06
1464, 3.3000000000e-04, 5.0000000000e-05, 1.4000000000e-06
1465, 3.5000000000e-04, 5.0000000000e-05, 1.4000000000e-06
1466, 3.7000000000e-04, 5.0000000000e-05, 1.4000000000e-06
1467, 3.9000000000e-04, 5.0000000000e-05, 1.4000000000e-06
1468, 4.1000000000e-04, 5.0000000000e-05, 1.4000000000e-06
1469, 4.3000000000e-04, 5.0000000000e-05, 1.4000000000e-06
1470, 4.5000000000e-04, 5.0000000000e-05, 1.4000000000e-06
1471, 4.7000000000e-04, 5.0000000000e-05, 1.4000000000e-06
1472, 4.9000000000e-04, 5.0000000000e-05, 1.4000000000e-06
1473, 4.9200000000e-04, 5.0000000000e-05, 1.4000000000e-06
1474, 4.9400000000e-04, 5.0000000000e-05, 1.4000000000e-06
1475, 4.9600000000e-04, 5.0000000000e-05, 1.4000000000e-06
1476, 4.9800000000e-04, 5.0000000000e-05, 1.4000000000e-06
1477, 5.0000000000e-04, 5.0000000000e-05, 1.4000000000e-06
1478, 5.0200000000e-04, 5.0000000000e-05, 1.4000000000e-06
1479, 5.0400000000e-04, 5.0000000000e-05, 1.4000000000e-06
1480, 5.0600000000e-04, 5.0000000000e-05, 1.4000000000e-06
1481, 5.0800000000e-04, 5.0000000000e-05, 1.4000000000e-06
1482, 5.1000000000e-04, 5.0000000000e-05, 1.4000000000e-06
1483, 5.2500000000e-04, 5.0000000000e-05, 1.4000000000e-06
1484, 5.4000000000e-04, 5.0000000000e-05, 1.4000000000e-06
1485, 5.5500000000e-04, 5.0000000000e-05, 1.4000000000e-06
1486, 5.7000000000e-04, 5.0000000000e-05, 1.4000000000e-06
1487, 5.8500000000e-04, 5.0000000000e-05, 1.4000000000e-06
1488, 6.0000000000e-04, 5.0000000000e-05, 1.4000000000e-06
1489, 0.0000000000e+00, 0.0000000000e+00, 1.8000000000e-06
1490, 1.5000000000e-05, 0.0000000000e+00, 1.8000000000e-06
1491, 3.0000000000e-05, 0.0000000000e+00, 1.8000000000e-06
1492, 4.5000000000e-05, 0.0000000000e+00, 1.8000000000e-06
1493, 6.0000000000e-05, 0.0000000000e+00, 1.8000000000e-06
1494, 7.5000000000e-05, 0.0000000000e+00, 1.8000000000e-06
1495, 9.0000000000e-05, 0.0000000000e+00, 1.8000000000e-06
1496, 9.2000000000e-05, 0.0000000000e+00, 1.8000000000e-06
1497, 9.4000000000e-05, 0.0000000000e+00, 1.8000000000e-06
1498, 9.6000000000e-05, 0.0000000000e+00, 1.8000000000e-06
1499, 9.8000000000e-05, 0.0000000000e+00, 1.8000000000e-06
1500, 1.0000000000e-04, 0.0000000000e+00, 1.8000000000e-06
1501, 1.0200000000e-04, 0.0000000000e+00, 1.8000000000e-06
1502, 1.0400000000e-04, 0.0000000000e+00, 1.8000000000e-06
1503, 1.0600000000e-04, 0.0000000000e+00, 1.8000000000e-06
1504, 1.0800000000e-04, 0.0000000000e+00, 1.8000000000e-06
1505, 1.1000000000e-04, 0.0000000000e+00, 1.8000000000e-06
1506, 1.3000000000e-04, 0.0000000000e+00, 1.8000000000e-06
1507, 1.5000000000e-04, 0.0000000000e+00, 1.8000000000e-06
1508, 1.7000000000e-04, 0.0000000000e+00, 1.8000000000e-06
1509, 1.9000000000e-04, 0.0000000000e+00, 1.8000000000e-06
1510, 2.1000000000e-04, 0.0000000000e+00, 1.8000000000e-06
1511, 2.3000000000e-04, 0.0000000000e+00, 1.8000000000e-06
1512, 2.5000000000e-04, 0.0000000000e+00, 1.8000000000e-06
1513, 2.7000000000e-04, 0.0000000000e+00, 1.8000000000e-06
1514, 2.9000000000e-04, 0.0000000000e+00, 1.8000000000e-06
1515, 3.1000000000e-04, 0.0000000000e+00, 1.8000000000e-06
1516, 3.3000000000e-04, 0.0000000000e+00, 1.8000000000e-06
1517, 3.5000000000e-04, 0.0000000000e+00, 1.8000000000e-06
1518, 3.7000000000e-04, 0.0000000000e+00, 1.8000000000e-06
1519, 3.9000000000e-04, 0.0000000000e+00, 1.8000000000e-06
1520, 4.1000000000e-04, 0.0000000000e+00, 1.8000000000e-06
1521, 4.3000000000e-04, 0.0000000000e+00, 1.8000000000e-06
1522, 4.5000000000e-04, 0.0000000000e+00, 1.8000000000e-06
1523, 4.7000000000e-04, 0.0000000000e+00, 1.8000000000e-06
1524, 4.9000000000e-04, 0.0000000000e+00, 1.8000000000e-06
1525, 4.9200000000e-04, 0.0000000000e+00, 1.8000000000e-06
1526, 4.9400000000e-04, 0.0000000000e+00, 1.8000000000e-06
1527, 4.9600000000e-04, 0.0000000000e+00, 1.8000000000e-06
1528, 4.9800000000e-04, 0.0000000000e+00, 1.8000000000e-06
1529, 5.0000000000e-04, 0.0000000000e+00, 1.8000000000e-06
1530, 5.0200000000e-04, 0.0000000000e+00, 1.8000000000e-06
1531, 5.0400000000e-04, 0.0000000000e+00, 1.8000000000e-06
1532, 5.0600000000e-04, 0.0000000000e+00, 1.8000000000e-06
1533, 5.0800000000e-04, 0.0000000000e+00, 1.8000000000e-06
1534, 5.1000000000e-04, 0.0000000000e+00, 1.8000000000e-06
1535, 5.2500000000e-04, 0.0000000000e+00, 1.8000000000e-06
1536, 5.4000000000e-04, 0.0000000000e+00, 1.8000000000e-06
1537, 5.5500000000e-04, 0.0000000000e+00, 1.8000000000e-06
1538, 5.7000000000e-04, 0.0000000000e+00, 1.8000000000e-06
1539, 5.8500000000e-04, 0.0000000000e+00, 1.8000000000e-06
1540, 6.0000000000e-04, 0.0000000000e+00, 1.8000000000e-06
1541, 0.0000000000e+00, 5.0000000000e-05, 1.8000000000e-06
1542, 1.5000000000e-05, 5.0000000000e-05, 1.8000000000e-06
1543, 3.0000000000e-05, 5.0000000000e-05, 1.8000000000e-06
1544, 4.5000000000e-05, 5.0000000000e-05, 1.8000000000e-06
1545, 6.0000000000e-05, 5.0000000000e-05, 1.8000000000e-06
1546, 7.5000000000e-05, 5.0000000000e-05, 1.8000000000e-06
1547, 9.0000000000e-05, 5.0000000000e-05, 1.8000000000e-06
1548, 9.2000000000e-05, 5.0000000000e-05, 1.8000000000e-06
1549, 9.4000000000e-05, 5.0000000000e-05, 1.8000000000e-06
1550, 9.6000000000e-05, 5.0000000000e-05, 1.8000000000e-06
1551, 9.8000000000e-05, 5.0000000000e-05, 1.8000000000e-06
1552, 1.0000000000e-04, 5.0000000000e-05, 1.8000000000e-06
1553, 1.0200000000e-04, 5.0000000000e-05, 1.8000000000e-06
1554, 1.0400000000e-04, 5.0000000000e-05, 1.8000000000e-06
1555, 1.0600000000e-04, 5.0000000000e-05, 1.8000000000e-06
1556, 1.0800000000e-04, 5.0000000000e-05, 1.8000000000e-06
1557, 1.1000000000e-04, 5.0000000000e-05, 1.8000000000e-06
1558, 1.3000000000e-04, 5.0000000000e-05, 1.8000000000e-06
1559, 1.5000000000e-04, 5.0000000000e-05, 1.8000000000e-06
1560, 1.7000000000e-04, 5.0000000000e-05, 1.8000000000e-06
1561, 1.9000000000e-04, 5.0000000000e-05, 1.8000000000e-06
1562, 2.1000000000e-04, 5.0000000000e-05, 1.8000000000e-06
1563, 2.3000000000e-04, 5.0000000000e-05, 1.8000000000e-06
1564, 2.5000000000e-04, 5.0000000000e-05, 1.8000000000e-06
1565, 2.7000000000e-04, 5.0000000000e-05, 1.8000000000e-06
1566, 2.9000000000e-04, 5.0000000000e-05, 1.8000000000e-06
1567, 3.1000000000e-04, 5.0000000000e-05, 1.8000000000e-06
1568, 3.3000000000e-04, 5.0000000000e-05, 1.8000000000e-06
1569, 3.5000000000e-04, 5.0000000000e-05, 1.8000000000e-06
1570, 3.7000000000e-04, 5.0000000000e-05, 1.8000000000e-06
1571, 3.9000000000e-04, 5.0000000000e-05, 1.8000000000e-06
1572, 4.1000000000e-04, 5.0000000000e-05, 1.8000000000e-06
1573, 4.3000000000e-04, 5.0000000000e-05, 1.8000000000e-06
1574, 4.5000000000e-04, 5.0000000000e-05, 1.8000000000e-06
1575, 4.7000000000e-04, 5.0000000000e-05, 1.8000000000e-06
1576, 4.9000000000e-04, 5.0000000000e-05, 1.8000000000e-06
1577, 4.9200000000e-04, 5.0000000000e-05, 1.8000000000e-06
1578, 4.9400000000e-04, 5.0000000000e-05, 1.8000000000e-06
1579, 4.9600000000e-04, 5.0000000000e-05, 1.8000000000e-06
1580, 4.9800000000e-04, 5.0000000000e-05, 1.8000000000e-06
1581, 5.0000000000e-04, 5.0000000000e-05, 1.8000000000e-06
1582, 5.0200000000e-04, 5.0000000000e-05, 1.8000000000e-06
1583, 5.0400000000e-04, 5.0000000000e-05, 1.8000000000e-06
1584, 5.0600000000e-04, 5.0000000000e-05, 1.8000000000e-06
1585, 5.0800000000e-04, 5.0000000000e-05, 1.8000000000e-06
1586, 5.1000000000e-04, 5.0000000000e-05, 1.8000000000e-06
1587, 5.2500000000e-04, 5.0000000000e-05, 1.8000000000e-06
1588, 5.4000000000e-04, 5.0000000000e-05, 1.8000000000e-06
1589, 5.5500000000e-04, 5.0000000000e-05, 1.8000000000e-06
1590, 5.7000000000e-04, 5.0000000000e-05, 1.8000000000e-06
1591, 5.8500000000e-04, 5.0000000000e-05, 1.8000000000e-06
1592, 6.0000000000e-04, 5.0000000000e-05, 1.8000000000e-06
1593, 0.0000000000e+00, 0.0000000000e+00, 2.2000000000e-06
1594, 1.5000000000e-05, 0.0000000000e+00, 2.2000000000e-06
1595, 3.0000000000e-05, 0.0000000000e+00, 2.2000000000e-06
1596, 4.5000000000e-05, 0.0000000000e+00, 2.2000000000e-06
1597, 6.0000000000e-05, 0.0000000000e+00, 2.2000000000e-06
1598, 7.5000000000e-05, 0.0000000000e+00, 2.2000000000e-06
1599, 9.0000000000e-05, 0.0000000000e+00, 2.2000000000e-06
1600, 9.2000000000e-05, 0.0000000000e+00, 2.2000000000e-06
1601, 9.4000000000e-05, 0.0000000000e+00, 2.2000000000e-06
1602, 9.6000000000e-05, 0.0000000000e+00, 2.2000000000e-06
1603, 9.8000000000e-05, 0.0000000000e+00, 2.2000000000e-06
1604, 1.0000000000e-04, 0.0000000000e+00, 2.2000000000e-06
1605, 1.0200000000e-04, 0.0000000000e+00, 2.2000000000e-06
1606, 1.0400000000e-04, 0.0000000000e+00, 2.2000000000e-06
1607, 1.0600000000e-04, 0.0000000000e+00, 2.2000000000e-06
1608, 1.0800000000e-04, 0.0000000000e+00, 2.2000000000e-06
1609, 1.1000000000e-04, 0.0000000000e+00, 2.2000000000e-06
1610, 1.3000000000e-04, 0.0000000000e+00, 2.2000000000e-06
1611, 1.5000000000e-04, 0.0000000000e+00, 2.2000000000e-06
1612, 1.7000000000e-04, 0.0000000000e+00, 2.2000000000e-06
1613, 1.9000000000e-04, 0.0000000000e+00, 2.2000000000e-06
1614, 2.1000000000e-04, 0.0000000000e+00, 2.2000000000e-06
1615, 2.3000000000e-04, 0.0000000000e+00, 2.2000000000e-06
1616, 2.5000000000e-04, 0.0000000000e+00, 2.2000000000e-06
1617, 2.7000000000e-04, 0.0000000000e+00, 2.2000000000e-06
1618, 2.9000000000e-04, 0.0000000000e+00, 2.2000000000e-06
1619, 3.1000000000e-04, 0.0000000000e+00, 2.2000000000e-06
1620, 3.3000000000e-04, 0.0000000000e+00, 2.2000000000e-06
1621, 3.5000000000e-04, 0.0000000000e+00, 2.2000000000e-06
1622, 3.7000000000e-04, 0.0000000000e+00, 2.2000000000e-06
1623, 3.9000000000e-04, 0.0000000000e+00, 2.2000000000e-06
1624, 4.1000000000e-04, 0.0000000000e+00, 2.2000000000e-06
1625, 4.3000000000e-04, 0.0000000000e+00, 2.2000000000e-06
1626, 4.5000000000e-04, 0.0000000000e+00, 2.2000000000e-06
1627, 4.7000000000e-04, 0.0000000000e+00, 2.2000000000e-06
1628, 4.9000000000e-04, 0.0000000000e+00, 2.2000000000e-06
1629, 4.9200000000e-04, 0.0000000000e+00, 2.2000000000e-06
1630, 4.9400000000e-04, 0.0000000000e+00, 2.2000000000e-06
1631, 4.9600000000e-04, 0.0000000000e+00, 2.2000000000e-06
1632, 4.9800000000e-04, 0.0000000000e+00, 2.2000000000e-06
1633, 5.0000000000e-04, 0.0000000000e+00, 2.2000000000e-06
1634, 5.0200000000e-04, 0.0000000000e+00, 2.2000000000e-06
1635, 5.0400000000e-04, 0.0000000000e+00, 2.2000000000e-06
1636, 5.0600000000e-04, 0.0000000000e+00, 2.2000000000e-06
1637, 5.0800000000e-04, 0.0000000000e+00, 2.2000000000e-06
1638, 5.1000000000e-04, 0.0000000000e+00, 2.2000000000e-06
1639, 5.2500000000e-04, 0.0000000000e+00, 2.2000000000e-06
1640, 5.4000000000e-04, 0.0000000000e+00, 2.2000000000e-06
1641, 5.5500000000e-04, 0.0000000000e+00, 2.2000000000e-06
1642, 5.7000000000e-04, 0.0000000000e+00, 2.2000000000e-06
1643, 5.8500000000e-04, 0.0000000000e+00, 2.2000000000e-06
1644, 6.0000000000e-04, 0.0000000000e+00, 2.2000000000e-06
1645, 0.0000000000e+00, 5.0000000000e-05, 2.2000000000e-06
1646, 1.5000000000e-05, 5.0000000000e-05, 2.2000000000e-06
1647, 3.0000000000e-05, 5.0000000000e-05, 2.2000000000e-06
1648, 4.5000000000e-05, 5.0000000000e-05, 2.2000000000e-06
1649, 6.0000000000e-05, 5.0000000000e-05, 2.2000000000e-06
1650, 7.5000000000e-05, 5.0000000000e-05, 2.2000000000e-06
1651, 9.0000000000e-05, 5.0000000000e-05, 2.2000000000e-06
1652, 9.2000000000e-05, 5.0000000000e-05, 2.2000000000e-06
1653, 9.4000000000e-05, 5.0000000000e-05, 2.2000000000e-06
1654, 9.6000000000e-05, 5.0000000000e-05, 2.2000000000e-06
1655, 9.8000000000e-05, 5.0000000000e-05, 2.2000000000e-06
1656, 1.0000000000e-04, 5.0000000000e-05, 2.2000000000e-06
1657, 1.0200000000e-04, 5.0000000000e-05, 2.2000000000e-06
1658, 1.0400000000e-04, 5.0000000000e-05, 2.2000000000e-06
1659, 1.0600000000e-04, 5.0000000000e-05, 2.2000000000e-06
1660, 1.0800000000e-04, 5.0000000000e-05, 2.2000000000e-06
1661, 1.1000000000e-04, 5.0000000000e-05, 2.2000000000e-06
1662, 1.3000000000e-04, 5.0000000000e-05, 2.2000000000e-06
1663, 1.5000000000e-04, 5.0000000000e-05, 2.2000000000e-06
1664, 1.7000000000e-04, 5.0000000000e-05, 2.2000000000e-06
1665, 1.9000000000e-04, 5.0000000000e-05, 2.2000000000e-06
1666, 2.1000000000e-04, 5.0000000000e-05, 2.2000000000e-06
1667, 2.3000000000e-04, 5.0000000000e-05, 2.2000000000e-06
1668, 2.5000000000e-04, 5.0000000000e-05, 2.2000000000e-06
1669, 2.7000000000e-04, 5.0000000000e-05, 2.2000000000e-06
1670, 2.9000000000e-04, 5.0000000000e-05, 2.2000000000e-06
1671, 3.1000000000e-04, 5.0000000000e-05, 2.2000000000e-06
1672, 3.3000000000e-04, 5.0000000000e-05, 2.2000000000e-06
1673, 3.5000000000e-04, 5.0000000000e-05, 2.2000000000e-06
1674, 3.7000000000e-04, 5.0000000000e-05, 2.2000000000e-06
1675, 3.9000000000e-04, 5.0000000000e-05, 2.2000000000e-06
1676, 4.1000000000e-04, 5.0000000000e-05, 2.2000000000e-06
1677, 4.3000000000e-04, 5.0000000000e-05, 2.2000000000e-06
1678, 4.5000000000e-04, 5.0000000000e-05, 2.2000000000e-06
1679, 4.7000000000e-04, 5.0000000000e-05, 2.2000000000e-06
1680, 4.9000000000e-04, 5.0000000000e-05, 2.2000000000e-06
1681, 4.9200000000e-04, 5.0000000000e-05, 2.2000000000e-06
1682, 4.9400000000e-04, 5.0000000000e-05, 2.2000000000e-06
1683, 4.9600000000e-04, 5.0000000000e-05, 2.2000000000e-06
1684, 4.9800000000e-04, 5.0000000000e-05, 2.2000000000e-06
1685, 5.0000000000e-04, 5.0000000000e-05, 2.2000000000e-06
1686, 5.0200000000e-04, 5.0000000000e-05, 2.2000000000e-06
1687, 5.0400000000e-04, 5.0000000000e-05, 2.2000000000e-06
1688, 5.0600000000e-04, 5.0000000000e-05, 2.2000000000e-06
1689, 5.0800000000e-04, 5.0000000000e-05, 2.2000000000e-06
1690, 5.1000000000e-04, 5.0000000000e-05, 2.2000000000e-06
1691, 5.2500000000e-04, 5.0000000000e-05, 2.2000000000e-06
1692, 5.4000000000e-04, 5.0000000000e-05, 2.2000000000e-06
1693, 5.5500000000e-04, 5.0000000000e-05, 2.2000000000e-06
1694, 5.7000000000e-04, 5.0000000000e-05, 2.2000000000e-06
1695, 5.8500000000e-04, 5.0000000000e-05, 2.2000000000e-06
1696, 6.0000000000e-04, 5.0000000000e-05, 2.2000000000e-06
1697, 0.0000000000e+00, 0.0000000000e+00, 2.6000000000e-06
1698, 1.5000000000e-05, 0.0000000000e+00, 2.6000000000e-06
1699, 3.0000000000e-05, 0.0000000000e+00, 2.6000000000e-06
1700, 4.5000000000e-05, 0.0000000000e+00, 2.6000000000e-06
1701, 6.0000000000e-05, 0.0000000000e+00, 2.6000000000e-06
1702, 7.5000000000e-05, 0.0000000000e+00, 2.6000000000e-06
1703, 9.0000000000e-05, 0.0000000000e+00, 2.6000000000e-06
1704, 9.2000000000e-05, 0.0000000000e+00, 2.6000000000e-06
1705, 9.4000000000e-05, 0.0000000000e+00, 2.6000000000e-06
1706, 9.6000000000e-05, 0.0000000000e+00, 2.6000000000e-06
1707, 9.8000000000e-05, 0.0000000000e+00, 2.6000000000e-06
1708, 1.0000000000e-04, 0.0000000000e+00, 2.6000000000e-06
1709, 1.0200000000e-04, 0.0000000000e+00, 2.6000000000e-06
1710, 1.0400000000e-04, 0.0000000000e+00, 2.6000000000e-06
1711, 1.0600000000e-04, 0.0000000000e+00, 2.6000000000e-06
1712, 1.0800000000e-04, 0.0000000000e+00, 2.6000000000e-06
1713, 1.1000000000e-04, 0.0000000000e+00, 2.6000000000e-06
1714, 1.3000000000e-04, 0.0000000000e+00, 2.6000000000e-06
1715, 1.5000000000e-04, 0.0000000000e+00, 2.6000000000e-06
1716, 1.7000000000e-04, 0.0000000000e+00, 2.6000000000e-06
1717, 1.9000000000e-04, 0.0000000000e+00, 2.6000000000e-06
1718, 2.1000000000e-04, 0.0000000000e+00, 2.6000000000e-06
1719, 2.3000000000e-04, 0.0000000000e+00, 2.6000000000e-06
1720, 2.5000000000e-04, 0.0000000000e+00, 2.6000000000e-06
1721, 2.7000000000e-04, 0.0000000000e+00, 2.6000000000e-06
1722, 2.9000000000e-04, 0.0000000000e+00, 2.6000000000e-06
1723, 3.1000000000e-04, 0.0000000000e+00, 2.6000000000e-06
1724, 3.3000000000e-04, 0.0000000000e+00, 2.6000000000e-06
1725, 3.5000000000e-04, 0.0000000000e+00, 2.6000000000e-06
1726, 3.7000000000e-04, 0.0000000000e+00, 2.6000000000e-06
1727, 3.9000000000e-04, 0.0000000000e+00, 2.6000000000e-06
1728, 4.1000000000e-04, 0.0000000000e+00, 2.6000000000e-06
1729, 4.3000000000e-04, 0.0000000000e+00, 2.6000000000e-06
1730, 4.5000000000e-04, 0.0000000000e+00, 2.6000000000e-06
1731, 4.7000000000e-04, 0.0000000000e+00, 2.6000000000e-06
1732, 4.9000000000e-04, 0.0000000000e+00, 2.6000000000e-06
1733, 4.9200000000e-04, 0.0000000000e+00, 2.6000000000e-06
1734, 4.9400000000e-04, 0.0000000000e+00, 2.6000000000e-06
1735, 4.9600000000e-04, 0.0000000000e+00, 2.6000000000e-06
1736, 4.9800000000e-04, 0.0000000000e+00, 2.6000000000e-06
1737, 5.0000000000e-04, 0.0000000000e+00, 2.6000000000e-06
1738, 5.0200000000e-04, 0.0000000000e+00, 2.6000000000e-06
1739, 5.0400000000e-04, 0.0000000000e+00, 2.6000000000e-06
1740, 5.0600000000e-04, 0.0000000000e+00, 2.6000000000e-06
1741, 5.0800000000e-04, 0.0000000000e+00, 2.6000000000e-06
1742, 5.1000000000e-04, 0.0000000000e+00, 2.6000000000e-06
1743, 5.2500000000e-04, 0.0000000000e+00, 2.6000000000e-06
1744, 5.4000000000e-04, 0.0000000000e+00, 2.6000000000e-06
1745, 5.5500000000e-04, 0.0000000000e+00, 2.6000000000e-06
1746, 5.7000000000e-04, 0.0000000000e+00, 2.6000000000e-06
1747, 5.8500000000e-04, 0.0000000000e+00, 2.6000000000e-06
1748, 6.0000000000e-04, 0.0000000000e+00, 2.6000000000e-06
1749, 0.0000000000e+00, 5.0000000000e-05, 2.6000000000e-06
1750, 1.5000000000e-05, 5.0000000000e-05, 2.6000000000e-06
1751, 3.0000000000e-05, 5.0000000000e-05, 2.6000000000e-06
1752, 4.5000000000e-05, 5.0000000000e-05, 2.6000000000e-06
1753, 6.0000000000e-05, 5.0000000000e-05, 2.6000000000e-06
1754, 7.5000000000e-05, 5.0000000000e-05, 2.6000000000e-06
1755, 9.0000000000e-05, 5.0000000000e-05, 2.6000000000e-06
1756, 9.2000000000e-05, 5.0000000000e-05, 2.6000000000e-06
1757, 9.4000000000e-05, 5.0000000000e-05, 2.6000000000e-06
1758, 9.6000000000e-05, 5.0000000000e-05, 2.6000000000e-06
1759, 9.8000000000e-05, 5.0000000000e-05, 2.6000000000e-06
1760, 1.0000000000e-04, 5.0000000000e-05, 2.6000000000e-06
1761, 1.0200000000e-04, 5.0000000000e-05, 2.6000000000e-06
1762, 1.0400000000e-04, 5.0000000000e-05, 2.6000000000e-06
1763, 1.0600000000e-04, 5.0000000000e-05, 2.6000000000e-06
1764, 1.0800000000e-04, 5.0000000000e-05, 2.6000000000e-06
1765, 1.1000000000e-04, 5.0000000000e-05, 2.6000000000e-06
1766, 1.3000000000e-04, 5.0000000000e-05, 2.6000000000e-06
1767, 1.5000000000e-04, 5.0000000000e-05, 2.6000000000e-06
1768, 1.7000000000e-04, 5.0000000000e-05, 2.6000000000e-06
1769, 1.9000000000e-04, 5.0000000000e-05, 2.6000000000e-06
1770, 2.1000000000e-04, 5.0000000000e-05, 2.6000000000e-06
1771, 2.3000000000e-04, 5.0000000000e-05, 2.6000000000e-06
1772, 2.5000000000e-04, 5.0000000000e-05, 2.6000000000e-06
1773, 2.7000000000e-04, 5.0000000000e-05, 2.6000000000e-06
1774, 2.9000000000e-04, 5.0000000000e-05, 2.6000000000e-06
1775, 3.1000000000e-04, 5.0000000000e-05, 2.6000000000e-06
1776, 3.3000000000e-04, 5.0000000000e-05, 2.6000000000e-06
1777, 3.5000000000e-04, 5.0000000000e-05, 2.6000000000e-06
1778, 3.7000000000e-04, 5.0000000000e-05, 2.6000000000e-06
1779, 3.9000000000e-04, 5.0000000000e-05, 2.6000000000e-06
1780, 4.1000000000e-04, 5.0000000000e-05, 2.6000000000e-06
1781, 4.3000000000e-04, 5.0000000000e-05, 2.6000000000e-06
1782, 4.5000000000e-04, 5.0000000000e-05, 2.6000000000e-06
1783, 4.7000000000e-04, 5.0000000000e-05, 2.6000000000e-06
1784, 4.9000000000e-04, 5.0000000000e-05, 2.6000000000e-06
1785, 4.9200000000e-04, 5.0000000000e-05, 2.6000000000e-06
1786, 4.9400000000e-04, 5.0000000000e-05, 2.6000000000e-06
1787, 4.9600000000e-04, 5.0000000000e-05, 2.6000000000e-06
1788, 4.9800000000e-04, 5.0000000000e-05, 2.6000000000e-06
1789, 5.0000000000e-04, 5.0000000000e-05, 2.6000000000e-06
1790, 5.0200000000e-04, 5.0000000000e-05, 2.6000000000e-06
1791, 5.0400000000e-04, 5.0000000000e-05, 2.6000000000e-06
1792, 5.0600000000e-04, 5.0000000000e-05, 2.6000000000e-06
1793, 5.0800000000e-04, 5.0000000000e-05, 2.6000000000e-06
1794, 5.1000000000e-04, 5.0000000000e-05, 2.6000000000e-06
1795, 5.2500000000e-04, 5.0000000000e-05, 2.6000000000e-06
1796, 5.4000000000e-04, 5.0000000000e-05, 2.6000000000e-06
1797, 5.5500000000e-04, 5.0000000000e-05, 2.6000000000e-06
1798, 5.7000000000e-04, 5.0000000000e-05, 2.6000000000e-06
1799, 5.8500000000e-04, 5.0000000000e-05, 2.6000000000e-06
1800, 6.0000000000e-04, 5.0000000000e-05, 2.6000000000e-06
1801, 0.0000000000e+00, 0.0000000000e+00, 3.0000000000e-06
1802, 1.5000000000e-05, 0.0000000000e+00, 3.0000000000e-06
1803, 3.0000000000e-05, 0.0000000000e+00, 3.0000000000e-06
1804, 4.5000000000e-05, 0.0000000000e+00, 3.0000000000e-06
1805, 6.0000000000e-05, 0.0000000000e+00, 3.0000000000e-06
1806, 7.5000000000e-05, 0.0000000000e+00, 3.0000000000e-06
1807, 9.0000000000e-05, 0.0000000000e+00, 3.0000000000e-06
1808, 9.2000000000e-05, 0.0000000000e+00, 3.0000000000e-06
1809, 9.4000000000e-05, 0.0000000000e+00, 3.0000000000e-06
1810, 9.6000000000e-05, 0.0000000000e+00, 3.0000000000e-06
1811, 9.8000000000e-05, 0.0000000000e+00, 3.0000000000e-06
1812, 1.0000000000e-04, 0.0000000000e+00, 3.0000000000e-06
1813, 1.0200000000e-04, 0.0000000000e+00, 3.0000000000e-06
1814, 1.0400000000e-04, 0.0000000000e+00, 3.0000000000e-06
1815, 1.0600000000e-04, 0.0000000000e+00, 3.0000000000e-06
1816, 1.0800000000e-04, 0.0000000000e+00, 3.0000000000e-06
1817, 1.1000000000e-04, 0.0000000000e+00, 3.0000000000e-06
1818, 1.3000000000e-04, 0.0000000000e+00, 3.0000000000e-06
1819, 1.5000000000e-04, 0.0000000000e+00, 3.0000000000e-06
1820, 1.7000000000e-04, 0.0000000000e+00, 3.0000000000e-06
1821, 1.9000000000e-04, 0.0000000000e+00, 3.0000000000e-06
1822, 2.1000000000e-04, 0.0000000000e+00, 3.0000000000e-06
1823, 2.3000000000e-04, 0.0000000000e+00, 3.0000000000e-06
1824, 2.5000000000e-04, 0.0000000000e+00, 3.0000000000e-06
1825, 2.7000000000e-04, 0.0000000000e+00, 3.0000000000e-06
1826, 2.9000000000e-04, 0.0000000000e+00, 3.0000000000e-06
1827, 3.1000000000e-04, 0.0000000000e+00, 3.0000000000e-06
1828, 3.3000000000e-04, 0.0000000000e+00, 3.0000000000e-06
1829, 3.5000000000e-04, 0.0000000000e+00, 3.0000000000e-06
1830, 3.7000000000e-04, 0.0000000000e+00, 3.0000000000e-06
1831, 3.9000000000e-04, 0.0000000000e+00, 3.0000000000e-06
1832, 4.1000000000e-04, 0.0000000000e+00, 3.0000000000e-06
1833, 4.3000000000e-04, 0.0000000000e+00, 3.0000000000e-06
1834, 4.5000000000e-04, 0.0000000000e+00, 3.0000000000e-06
1835, 4.7000000000e-04, 0.0000000000e+00, 3.0000000000e-06
1836, 4.9000000000e-04, 0.0000000000e+00, 3.0000000000e-06
1837, 4.9200000000e-04, 0.0000000000e+00, 3.0000000000e-06
1838, 4.9400000000e-04, 0.0000000000e+00, 3.0000000000e-06
1839, 4.9600000000e-04, 0.0000000000e+00, 3.0000000000e-06
1840, 4.9800000000e-04, 0.0000000000e+00, 3.0000000000e-06
1841, 5.0000000000e-04, 0.0000000000e+00, 3.0000000000e-06
1842, 5.0200000000e-04, 0.0000000000e+00, 3.0000000000e-06
1843, 5.0400000000e-04, 0.0000000000e+00, 3.0000000000e-06
1844, 5.0600000000e-04, 0.0000000000e+00, 3.0000000000e-06
1845, 5.0800000000e-04, 0.0000000000e+00, 3.0000000000e-06
1846, 5.1000000000e-04, 0.0000000000e+00, 3.0000000000e-06
1847, 5.2500000000e-04, 0.0000000000e+00, 3.0000000000e-06
1848, 5.4000000000e-04, 0.0000000000e+00, 3.0000000000e-06
1849, 5.5500000000e-04, 0.0000000000e+00, 3.0000000000e-06
1850, 5.7000000000e-04, 0.0000000000e+00, 3.0000000000e-06
1851, 5.8500000000e-04, 0.0000000000e+00, 3.0000000000e-06
1852, 6.0000000000e-04, 0.0000000000e+00, 3.0000000000e-06
1853, 0.0000000000e+00, 5.0000000000e-05, 3.0000000000e-06
1854, 1.5000000000e-05, 5.0000000000e-05, 3.0000000000e-06
1855, 3.0000000000e-05, 5.0000000000e-05, 3.0000000000e-06
1856, 4.5000000000e-05, 5.0000000000e-05, 3.0000000000e-06
1857, 6.0000000000e-05, 5.0000000000e-05, 3.0000000000e-06
1858, 7.5000000000e-05, 5.0000000000e-05, 3.0000000000e-06
1859, 9.0000000000e-05, 5.0000000000e-05, 3.0000000000e-06
1860, 9.2000000000e-05, 5.0000000000e-05, 3.0000000000e-06
1861, 9.4000000000e-05, 5.0000000000e-05, 3.0000000000e-06
1862, 9.6000000000e-05, 5.0000000000e-05, 3.0000000000e-06
1863, 9.8000000000e-05, 5.0000000000e-05, 3.0000000000e-06
1864, 1.0000000000e-04, 5.0000000000e-05, 3.0000000000e-06
1865, 1.0200000000e-04, 5.0000000000e-05, 3.0000000000e-06
1866, 1.0400000000e-04, 5.0000000000e-05, 3.0000000000e-06
1867, 1.0600000000e-04, 5.0000000000e-05, 3.0000000000e-06
1868, 1.0800000000e-04, 5.0000000000e-05, 3.0000000000e-06
1869, 1.1000000000e-04, 5.0000000000e-05, 3.0000000000e-06
1870, 1.3000000000e-04, 5.0000000000e-05, 3.0000000000e-06
1871, 1.5000000000e-04, 5.0000000000e-05, 3.0000000000e-06
1872, 1.7000000000e-04, 5.0000000000e-05, 3.0000000000e-06
1873, 1.9000000000e-04, 5.0000000000e-05, 3.0000000000e-06
1874, 2.1000000000e-04, 5.0000000000e-05, 3.0000000000e-06
1875, 2.3000000000e-04, 5.0000000000e-05, 3.0000000000e-06
1876, 2.5000000000e-04, 5.0000000000e-05, 3.0000000000e-06
1877, 2.7000000000e-04, 5.0000000000e-05, 3.0000000000e-06
1878, 2.9000000000e-04, 5.0000000000e-05, 3.0000000000e-06
1879, 3.1000000000e-04, 5.0000000000e-05, 3.0000000000e-06
1880, 3.3000000000e-04, 5.0000000000e-05, 3.0000000000e-06
1881, 3.5000000000e-04, 5.0000000000e-05, 3.0000000000e-06
1882, 3.7000000000e-04, 5.0000000000e-05, 3.0000000000e-06
1883, 3.9000000000e-04, 5.0000000000e-05, 3.0000000000e-06
1884, 4.1000000000e-04, 5.0000000000e-05, 3.0000000000e-06
1885, 4.3000000000e-04, 5.0000000000e-05, 3.0000000000e-06
1886, 4.5000000000e-04, 5.0000000000e-05, 3.0000000000e-06
1887, 4.7000000000e-04, 5.0000000000e-05, 3.0000000000e-06
1888, 4.9000000000e-04, 5.0000000000e-05, 3.0000000000e-06
1889, 4.9200000000e-04, 5.0000000000e-05, 3.0000000000e-06
1890, 4.9400000000e-04, 5.0000000000e-05, 3.0000000000e-06
1891, 4.9600000000e-04, 5.0000000000e-05, 3.0000000000e-06
1892, 4.9800000000e-04, 5.0000000000e-05, 3.0000000000e-06
1893, 5.0000000000e-04, 5.0000000000e-05, 3.0000000000e-06
1894, 5.0200000000e-04, 5.0000000000e-05, 3.0000000000e-06
1895, 5.0400000000e-04, 5.0000000000e-05, 3.0000000000e-06
1896, 5.0600000000e-04, 5.0000000000e-05, 3.0000000000e-06
1897, 5.0800000000e-04, 5.0000000000e-05, 3.0000000000e-06
1898, 5.1000000000e-04, 5.0000000000e-05, 3.0000000000e-06
1899, 5.2500000000e-04, 5.0000000000e-05, 3.0000000000e-06
1900, 5.4000000000e-04, 5.0000000000e-05, 3.0000000000e-06
1901, 5.5500000000e-04, 5.0000000000e-05, 3.0000000000e-06
1902, 5.7000000000e-04, 5.0000000000e-05, 3.0000000000e-06
1903, 5.8500000000e-04, 5.0000000000e-05, 3.0000000000e-06
1904, 6.0000000000e-04, 5.0000000000e-05, 3.0000000000e-06
1905, 0.0000000000e+00, 0.0000000000e+00, 3.4000000000e-06
1906, 1.5000000000e-05, 0.0000000000e+00, 3.4000000000e-06
1907, 3.0000000000e-05, 0.0000000000e+00, 3.4000000000e-06
1908, 4.5000000000e-05, 0.0000000000e+00, 3.4000000000e-06
1909, 6.0000000000e-05, 0.0000000000e+00, 3.4000000000e-06
1910, 7.5000000000e-05, 0.0000000000e+00, 3.4000000000e-06
1911, 9.0000000000e-05, 0.0000000000e+00, 3.4000000000e-06
1912, 9.2000000000e-05, 0.0000000000e+00, 3.4000000000e-06
1913, 9.4000000000e-05, 0.0000000000e+00, 3.4000000000e-06
1914, 9.6000000000e-05, 0.0000000000e+00, 3.4000000000e-06
1915, 9.8000000000e-05, 0.0000000000e+00, 3.4000000000e-06
1916, 1.0000000000e-04, 0.0000000000e+00, 3.4000000000e-06
1917, 1.0200000000e-04, 0.0000000000e+00, 3.4000000000e-06
1918, 1.0400000000e-04, 0.0000000000e+00, 3.4000000000e-06
1919, 1.0600000000e-04, 0.0000000000e+00, 3.4000000000e-06
1920, 1.0800000000e-04, 0.0000000000e+00, 3.4000000000e-06
1921, 1.1000000000e-04, 0.0000000000e+00, 3.4000000000e-06
1922, 1.3000000000e-04, 0.0000000000e+00, 3.4000000000e-06
1923, 1.5000000000e-04, 0.0000000000e+00, 3.4000000000e-06
1924, 1.7000000000e-04, 0.0000000000e+00, 3.4000000000e-06
1925, 1.9000000000e-04, 0.0000000000e+00, 3.4000000000e-06
1926, 2.1000000000e-04, 0.0000000000e+00, 3.4000000000e-06
1927, 2.3000000000e-04, 0.0000000000e+00, 3.4000000000e-06
1928, 2.5000000000e-04, 0.0000000000e+00, 3.4000000000e-06
1929, 2.7000000000e-04, 0.0000000000e+00, 3.4000000000e-06
1930, 2.9000000000e-04, 0.0000000000e+00, 3.4000000000e-06
1931, 3.1000000000e-04, 0.0000000000e+00, 3.4000000000e-06
1932, 3.3000000000e-04, 0.0000000000e+00, 3.4000000000e-06
1933, 3.5000000000e-04, 0.0000000000e+00, 3.4000000000e-06
1934, 3.7000000000e-04, 0.0000000000e+00, 3.4000000000e-06
1935, 3.9000000000e-04, 0.0000000000e+00, 3.4000000000e-06
1936, 4.1000000000e-04, 0.0000000000e+00, 3.4000000000e-06
1937, 4.3000000000e-04, 0.0000000000e+00, 3.4000000000e-06
1938, 4.5000000000e-04, 0.0000000000e+00, 3.4000000000e-06
1939, 4.7000000000e-04, 0.0000000000e+00, 3.4000000000e-06
1940, 4.9000000000e-04, 0.0000000000e+00, 3.4000000000e-06
1941, 4.9200000000e-04, 0.0000000000e+00, 3.4000000000e-06
1942, 4.9400000000e-04, 0.0000000000e+00, 3.4000000000e-06
1943, 4.9600000000e-04, 0.0000000000e+00, 3.4000000000e-06
1944, 4.9800000000e-04, 0.0000000000e+00, 3.4000000000e-06
1945, 5.0000000000e-04, 0.0000000000e+00, 3.4000000000e-06
1946, 5.0200000000e-04, 0.0000000000e+00, 3.4000000000e-06
1947, 5.0400000000e-04, 0.0000000000e+00, 3.4000000000e-06
1948, 5.0600000000e-04, 0.0000000000e+00, 3.4000000000e-06
1949, 5.0800000000e-04, 0.0000000000e+00, 3.4000000000e-06
1950, 5.1000000000e-04, 0.0000000000e+00, 3.4000000000e-06
1951, 5.2500000000e-04, 0.0000000000e+00, 3.4000000000e-06
1952, 5.4000000000e-04, 0.0000000000e+00, 3.4000000000e-06
1953, 5.5500000000e-04, 0.0000000000e+00, 3.4000000000e-06
1954, 5.7000000000e-04, 0.0000000000e+00, 3.4000000000e-06
1955, 5.8500000000e-04, 0.0000000000e+00, 3.4000000000e-06
1956, 6.0000000000e-04, 0.0000000000e+00, 3.4000000000e-06
1957, 0.0000000000e+00, 5.0000000000e-05, 3.4000000000e-06
1958, 1.5000000000e-05, 5.0000000000e-05, 3.4000000000e-06
1959, 3.0000000000e-05, 5.0000000000e-05, 3.4000000000e-06
1960, 4.5000000000e-05, 5.0000000000e-05, 3.4000000000e-06
1961, 6.0000000000e-05, 5.0000000000e-05, 3.4000000000e-06
1962, 7.5000000000e-05, 5.0000000000e-05, 3.4000000000e-06
1963, 9.0000000000e-05, 5.0000000000e-05, 3.4000000000e-06
1964, 9.2000000000e-05, 5.0000000000e-05, 3.4000000000e-06
1965, 9.4000000000e-05, 5.0000000000e-05, 3.4000000000e-06
1966, 9.6000000000e-05, 5.0000000000e-05, 3.4000000000e-06
1967, 9.8000000000e-05, 5.0000000000e-05, 3.4000000000e-06
1968, 1.0000000000e-04, 5.0000000000e-05, 3.4000000000e-06
1969, 1.0200000000e-04, 5.0000000000e-05, 3.4000000000e-06
1970, 1.0400000000e-04, 5.0000000000e-05, 3.4000000000e-06
1971, 1.0600000000e-04, 5.0000000000e-05, 3.4000000000e-06
1972, 1.0800000000e-04, 5.0000000000e-05, 3.4000000000e-06
1973, 1.1000000000e-04, 5.0000000000e-05, 3.4000000000e-06
1974, 1.3000000000e-04, 5.0000000000e-05, 3.4000000000e-06
1975, 1.5000000000e-04, 5.0000000000e-05, 3.4000000000e-06
1976, 1.7000000000e-04, 5.0000000000e-05, 3.4000000000e-06
1977, 1.9000000000e-04, 5.0000000000e-05, 3.4000000000e-06
1978, 2.1000000000e-04, 5.0000000000e-05, 3.4000000000e-06
1979, 2.3000000000e-04, 5.0000000000e-05, 3.4000000000e-06
1980, 2.5000000000e-04, 5.0000000000e-05, 3.4000000000e-06
1981, 2.7000000000e-04, 5.0000000000e-05, 3.4000000000e-06
1982, 2.9000000000e-04, 5.0000000000e-05, 3.4000000000e-06
1983, 3.1000000000e-04, 5.0000000000e-05, 3.4000000000e-06
1984, 3.3000000000e-04, 5.0000000000e-05, 3.4000000000e-06
1985, 3.5000000000e-04, 5.0000000000e-05, 3.4000000000e-06
1986, 3.7000000000e-04, 5.0000000000e-05, 3.4000000000e-06
1987, 3.9000000000e-04, 5.0000000000e-05, 3.4000000000e-06
1988, 4.1000000000e-04, 5.0000000000e-05, 3.4000000000e-06
1989, 4.3000000000e-04, 5.0000000000e-05, 3.4000000000e-06
1990, 4.5000000000e-04, 5.0000000000e-05, 3.4000000000e-06
1991, 4.7000000000e-04, 5.0000000000e-05, 3.4000000000e-06
1992, 4.9000000000e-04, 5.0000000000e-05, 3.4000000000e-06
1993, 4.9200000000e-04, 5.0000000000e-05, 3.4000000000e-06
1994, 4.9400000000e-04, 5.0000000000e-05, 3.4000000000e-06
1995, 4.9600000000e-04, 5.0000000000e-05, 3.4000000000e-06
1996, 4.9800000000e-04, 5.0000000000e-05, 3.4000000000e-06
1997, 5.0000000000e-04, 5.0000000000e-05, 3.4000000000e-06
1998, 5.0200000000e-04, 5.0000000000e-05, 3.4000000000e-06
1999, 5.0400000000e-04, 5.0000000000e-05, 3.4000000000e-06
2000, 5.0600000000e-04, 5.0000000000e-05, 3.4000000000e-06
2001, 5.0800000000e-04, 5.0000000000e-05, 3.4000000000e-06
2002, 5.1000000000e-04, 5.0000000000e-05, 3.4000000000e-06
2003, 5.2500000000e-04, 5.0000000000e-05, 3.4000000000e-06
2004, 5.4000000000e-04, 5.0000000000e-05, 3.4000000000e-06
2005, 5.5500000000e-04, 5.0000000000e-05, 3.4000000000e-06
2006, 5.7000000000e-04, 5.0000000000e-05, 3.4000000000e-06
2007, 5.8500000000e-04, 5.0000000000e-05, 3.4000000000e-06
2008, 6.0000000000e-04, 5.0000000000e-05, 3.4000000000e-06
2009, 0.0000000000e+00, 0.0000000000e+00, 3.8000000000e-06
2010, 1.5000000000e-05, 0.0000000000e+00, 3.8000000000e-06
2011, 3.0000000000e-05, 0.0000000000e+00, 3.8000000000e-06
2012, 4.5000000000e-05, 0.0000000000e+00, 3.8000000000e-06
2013, 6.0000000000e-05, 0.0000000000e+00, 3.8000000000e-06
2014, 7.5000000000e-05, 0.0000000000e+00, 3.8000000000e-06
2015, 9.0000000000e-05, 0.0000000000e+00, 3.8000000000e-06
2016, 9.2000000000e-05, 0.0000000000e+00, 3.8000000000e-06
2017, 9.4000000000e-05, 0.0000000000e+00, 3.8000000000e-06
2018, 9.6000000000e-05, 0.0000000000e+00, 3.8000000000e-06
2019, 9.8000000000e-05, 0.0000000000e+00, 3.8000000000e-06
2020, 1.0000000000e-04, 0.0000000000e+00, 3.8000000000e-06
2021, 1.0200000000e-04, 0.0000000000e+00, 3.8000000000e-06
2022, 1.0400000000e-04, 0.0000000000e+00, 3.8000000000e-06
2023, 1.0600000000e-04, 0.0000000000e+00, 3.8000000000e-06
2024, 1.0800000000e-04, 0.0000000000e+00, 3.8000000000e-06
2025, 1.1000000000e-04, 0.0000000000e+00, 3.8000000000e-06
2026, 1.3000000000e-04, 0.0000000000e+00, 3.8000000000e-06
2027, 1.5000000000e-04, 0.0000000000e+00, 3.8000000000e-06
2028, 1.7000000000e-04, 0.0000000000e+00, 3.8000000000e-06
2029, 1.9000000000e-04, 0.0000000000e+00, 3.8000000000e-06
2030, 2.1000000000e-04, 0.0000000000e+00, 3.8000000000e-06
2031, 2.3000000000e-04, 0.0000000000e+00, 3.8000000000e-06
2032, 2.5000000000e-04, 0.0000000000e+00, 3.8000000000e-06
2033, 2.7000000000e-04, 0.0000000000e+00, 3.8000000000e-06
2034, 2.9000000000e-04, 0.0000000000e+00, 3.8000000000e-06
2035, 3.1000000000e-04, 0.0000000000e+00, 3.8000000000e-06
2036, 3.3000000000e-04, 0.0000000000e+00, 3.8000000000e-06
2037, 3.5000000000e-04, 0.0000000000e+00, 3.8000000000e-06
2038, 3.7000000000e-04, 0.0000000000e+00, 3.8000000000e-06
2039, 3.9000000000e-04, 0.0000000000e+00, 3.8000000000e-06
2040, 4.1000000000e-04, 0.0000000000e+00, 3.8000000000e-06
2041, 4.3000000000e-04, 0.0000000000e+00, 3.8000000000e-06
2042, 4.5000000000e-04, 0.0000000000e+00, 3.8000000000e-06
2043, 4.7000000000e-04, 0.0000000000e+00, 3.8000000000e-06
2044, 4.9000000000e-04, 0.0000000000e+00, 3.8000000000e-06
2045, 4.9200000000e-04, 0.0000000000e+00, 3.8000000000e-06
2046, 4.9400000000e-04, 0.0000000000e+00, 3.8000000000e-06
2047, 4.9600000000e-04, 0.0000000000e+00, 3.8000000000e-06
2048, 4.9800000000e-04, 0.0000000000e+00, 3.8000000000e-06
2049, 5.0000000000e-04, 0.0000000000e+00, 3.8000000000e-06
2050, 5.0200000000e-04, 0.0000000000e+00, 3.8000000000e-06
2051, 5.0400000000e-04, 0.0000000000e+00, 3.8000000000e-06
2052, 5.0600000000e-04, 0.0000000000e+00, 3.8000000000e-06
2053, 5.0800000000e-04, 0.0000000000e+00, 3.8000000000e-06
2054, 5.1000000000e-04, 0.0000000000e+00, 3.8000000000e-06
2055, 5.2500000000e-04, 0.0000000000e+00, 3.8000000000e-06
2056, 5.4000000000e-04, 0.0000000000e+00, 3.8000000000e-06
2057, 5.5500000000e-04, 0.0000000000e+00, 3.8000000000e-06
2058, 5.7000000000e-04, 0.0000000000e+00, 3.8000000000e-06
2059, 5.8500000000e-04, 0.0000000000e+00, 3.8000000000e-06
2060, 6.0000000000e-04, 0.0000000000e+00, 3.8000000000e-06
2061, 0.0000000000e+00, 5.0000000000e-05, 3.8000000000e-06
2062, 1.5000000000e-05, 5.0000000000e-05, 3.8000000000e-06
2063, 3.0000000000e-05, 5.0000000000e-05, 3.8000000000e-06
2064, 4.5000000000e-05, 5.0000000000e-05, 3.8000000000e-06
2065, 6.0000000000e-05, 5.0000000000e-05, 3.8000000000e-06
2066, 7.5000000000e-05, 5.0000000000e-05, 3.8000000000e-06
2067, 9.0000000000e-05, 5.0000000000e-05, 3.8000000000e-06
2068, 9.2000000000e-05, 5.0000000000e-05, 3.8000000000e-06
2069, 9.4000000000e-05, 5.0000000000e-05, 3.8000000000e-06
2070, 9.6000000000e-05, 5.0000000000e-05, 3.8000000000e-06
2071, 9.8000000000e-05, 5.0000000000e-05, 3.8000000000e-06
2072, 1.0000000000e-04, 5.0000000000e-05, 3.8000000000e-06
2073, 1.0200000000e-04, 5.0000000000e-05, 3.8000000000e-06
2074, 1.0400000000e-04, 5.0000000000e-05, 3.8000000000e-06
2075, 1.0600000000e-04, 5.0000000000e-05, 3.8000000000e-06
2076, 1.0800000000e-04, 5.0000000000e-05, 3.8000000000e-06
2077, 1.1000000000e-04, 5.0000000000e-05, 3.8000000000e-06
2078, 1.3000000000e-04, 5.0000000000e-05, 3.8000000000e-06
2079, 1.5000000000e-04, 5.0000000000e-05, 3.8000000000e-06
2080, 1.7000000000e-04, 5.0000000000e-05, 3.8000000000e-06
2081, 1.9000000000e-04, 5.0000000000e-05, 3.8000000000e-06
2082, 2.1000000000e-04, 5.0000000000e-05, 3.8000000000e-06
2083, 2.3000000000e-04, 5.0000000000e-05, 3.8000000000e-06
2084, 2.5000000000e-04, 5.0000000000e-05, 3.8000000000e-06
2085, 2.7000000000e-04, 5.0000000000e-05, 3.8000000000e-06
2086, 2.9000000000e-04, 5.0000000000e-05, 3.8000000000e-06
2087, 3.1000000000e-04, 5.0000000000e-05, 3.8000000000e-06
2088, 3.3000000000e-04, 5.0000000000e-05, 3.8000000000e-06
2089, 3.5000000000e-04, 5.0000000000e-05, 3.8000000000e-06
2090, 3.7000000000e-04, 5.0000000000e-05, 3.8000000000e-06
2091, 3.9000000000e-04, 5.0000000000e-05, 3.8000000000e-06
2092, 4.1000000000e-04, 5.0000000000e-05, 3.8000000000e-06
2093, 4.3000000000e-04, 5.0000000000e-05, 3.8000000000e-06
2094, 4.5000000000e-04, 5.0000000000e-05, 3.8000000000e-06
2095, 4.7000000000e-04, 5.0000000000e-05, 3.8000000000e-06
2096, 4.9000000000e-04, 5.0000000000e-05, 3.8000000000e-06
2097, 4.9200000000e-04, 5.0000000000e-05, 3.8000000000e-06
2098, 4.9400000000e-04, 5.0000000000e-05, 3.8000000000e-06
2099, 4.9600000000e-04, 5.0000000000e-05, 3.8000000000e-06
2100, 4.9800000000e-04, 5.0000000000e-05, 3.8000000000e-06
2101, 5.0000000000e-04, 5.0000000000e-05, 3.8000000000e-06
2102, 5.0200000000e-04, 5.0000000000e-05, 3.8000000000e-06
2103, 5.0400000000e-04, 5.0000000000e-05, 3.8000000000e-06
2104, 5.0600000000e-04, 5.0000000000e-05, 3.8000000000e-06
2105, 5.0800000000e-04, 5.0000000000e-05, 3.8000000000e-06
2106, 5.1000000000e-04, 5.0000000000e-05, 3.8000000000e-06
2107, 5.2500000000e-04, 5.0000000000e-05, 3.8000000000e-06
2108, 5.4000000000e-04, 5.0000000000e-05, 3.8000000000e-06
2109, 5.5500000000e-04, 5.0000000000e-05, 3.8000000000e-06
2110, 5.7000000000e-04, 5.0000000000e-05, 3.8000000000e-06
2111, 5.8500000000e-04, 5.0000000000e-05, 3.8000000000e-06
2112, 6.0000000000e-04, 5.0000000000e-05, 3.8000000000e-06
2113, 0.0000000000e+00, 0.0000000000e+00, 4.2000000000e-06
2114, 1.5000000000e-05, 0.0000000000e+00, 4.2000000000e-06
2115, 3.0000000000e-05, 0.0000000000e+00, 4.2000000000e-06
2116, 4.5000000000e-05, 0.0000000000e+00, 4.2000000000e-06
2117, 6.0000000000e-05, 0.0000000000e+00, 4.2000000000e-06
2118, 7.5000000000e-05, 0.0000000000e+00, 4.2000000000e-06
2119, 9.0000000000e-05, 0.0000000000e+00, 4.2000000000e-06
2120, 9.2000000000e-05, 0.0000000000e+00, 4.2000000000e-06
2121, 9.4000000000e-05, 0.0000000000e+00, 4.2000000000e-06
2122, 9.6000000000e-05, 0.0000000000e+00, 4.2000000000e-06
2123, 9.8000000000e-05, 0.0000000000e+00, 4.2000000000e-06
2124, 1.0000000000e-04, 0.0000000000e+00, 4.2000000000e-06
2125, 1.0200000000e-04, 0.0000000000e+00, 4.2000000000e-06
2126, 1.0400000000e-04, 0.0000000000e+00, 4.2000000000e-06
2127, 1.0600000000e-04, 0.0000000000e+00, 4.2000000000e-06
2128, 1.0800000000e-04, 0.0000000000e+00, 4.2000000000e-06
2129, 1.1000000000e-04, 0.0000000000e+00, 4.2000000000e-06
2130, 1.3000000000e-04, 0.0000000000e+00, 4.2000000000e-06
2131, 1.5000000000e-04, 0.0000000000e+00, 4.2000000000e-06
2132, 1.7000000000e-04, 0.0000000000e+00, 4.2000000000e-06
2133, 1.9000000000e-04, 0.0000000000e+00, 4.2000000000e-06
2134, 2.1000000000e-04, 0.0000000000e+00, 4.2000000000e-06
2135, 2.3000000000e-04, 0.0000000000e+00, 4.2000000000e-06
2136, 2.5000000000e-04, 0.0000000000e+00, 4.2000000000e-06
2137, 2.7000000000e-04, 0.0000000000e+00, 4.2000000000e-06
2138, 2.9000000000e-04, 0.0000000000e+00, 4.2000000000e-06
2139, 3.1000000000e-04, 0.0000000000e+00, 4.2000000000e-06
2140, 3.3000000000e-04, 0.0000000000e+00, 4.2000000000e-06
2141, 3.5000000000e-04, 0.0000000000e+00, 4.2000000000e-06
2142, 3.7000000000e-04, 0.0000000000e+00, 4.2000000000e-06
2143, 3.9000000000e-04, 0.0000000000e+00, 4.2000000000e-06
2144, 4.1000000000e-04, 0.0000000000e+00, 4.2000000000e-06
2145, 4.3000000000e-04, 0.0000000000e+00, 4.2000000000e-06
2146, 4.5000000000e-04, 0.0000000000e+00, 4.2000000000e-06
2147, 4.7000000000e-04, 0.0000000000e+00, 4.2000000000e-06
2148, 4.9000000000e-04, 0.0000000000e+00, 4.2000000000e-06
2149, 4.9200000000e-04, 0.0000000000e+00, 4.2000000000e-06
2150, 4.9400000000e-04, 0.0000000000e+00, 4.2000000000e-06
2151, 4.9600000000e-04, 0.0000000000e+00, 4.2000000000e-06
2152, 4.9800000000e-04, 0.0000000000e+00, 4.2000000000e-06
2153, 5.0000000000e-04, 0.0000000000e+00, 4.2000000000e-06
2154, 5.0200000000e-04, 0.0000000000e+00, 4.2000000000e-06
2155, 5.0400000000e-04, 0.0000000000e+00, 4.2000000000e-06
2156, 5.0600000000e-04, 0.0000000000e+00, 4.2000000000e-06
2157, 5.0800000000e-04, 0.0000000000e+00, 4.2000000000e-06
2158, 5.1000000000e-04, 0.0000000000e+00, 4.2000000000e-06
2159, 5.2500000000e-04, 0.0000000000e+00, 4.2000000000e-06
2160, 5.4000000000e-04, 0.0000000000e+00, 4.2000000000e-06
2161, 5.5500000000e-04, 0.0000000000e+00, 4.2000000000e-06
2162, 5.7000000000e-04, 0.0000000000e+00, 4.2000000000e-06
2163, 5.8500000000e-04, 0.0000000000e+00, 4.2000000000e-06
2164, 6.0000000000e-04, 0.0000000000e+00, 4.2000000000e-06
2165, 0.0000000000e+00, 5.0000000000e-05, 4.2000000000e-06
2166, 1.5000000000e-05, 5.0000000000e-05, 4.2000000000e-06
2167, 3.0000000000e-05, 5.0000000000e-05, 4.2000000000e-06
2168, 4.5000000000e-05, 5.0000000000e-05, 4.2000000000e-06
2169, 6.0000000000e-05, 5.0000000000e-05, 4.2000000000e-06
2170, 7.5000000000e-05, 5.0000000000e-05, 4.2000000000e-06
2171, 9.0000000000e-05, 5.0000000000e-05, 4.2000000000e-06
2172, 9.2000000000e-05, 5.0000000000e-05, 4.2000000000e-06
2173, 9.4000000000e-05, 5.0000000000e-05, 4.2000000000e-06
2174, 9.6000000000e-05, 5.0000000000e-05, 4.2000000000e-06
2175, 9.8000000000e-05, 5.0000000000e-05, 4.2000000000e-06
2176, 1.0000000000e-04, 5.0000000000e-05, 4.2000000000e-06
2177, 1.0200000000e-04, 5.0000000000e-05, 4.2000000000e-06
2178, 1.0400000000e-04, 5.0000000000e-05, 4.2000000000e-06
2179, 1.0600000000e-04, 5.0000000000e-05, 4.2000000000e-06
2180, 1.0800000000e-04, 5.0000000000e-05, 4.2000000000e-06
2181, 1.1000000000e-04, 5.0000000000e-05, 4.2000000000e-06
2182, 1.3000000000e-04, 5.0000000000e-05, 4.2000000000e-06
2183, 1.5000000000e-04, 5.0000000000e-05, 4.2000000000e-06
2184, 1.7000000000e-04, 5.0000000000e-05, 4.2000000000e-06
2185, 1.9000000000e-04, 5.0000000000e-05, 4.2000000000e-06
2186, 2.1000000000e-04, 5.0000000000e-05, 4.2000000000e-06
2187, 2.3000000000e-04, 5.0000000000e-05, 4.2000000000e-06
2188, 2.5000000000e-04, 5.0000000000e-05, 4.2000000000e-06
2189, 2.7000000000e-04, 5.0000000000e-05, 4.2000000000e-06
2190, 2.9000000000e-04, 5.0000000000e-05, 4.2000000000e-06
2191, 3.1000000000e-04, 5.0000000000e-05, 4.2000000000e-06
2192, 3.3000000000e-04, 5.0000000000e-05, 4.2000000000e-06
2193, 3.5000000000e-04, 5.0000000000e-05, 4.2000000000e-06
2194, 3.7000000000e-04, 5.0000000000e-05, 4.2000000000e-06
2195, 3.9000000000e-04, 5.0000000000e-05, 4.2000000000e-06
2196, 4.1000000000e-04, 5.0000000000e-05, 4.2000000000e-06
2197, 4.3000000000e-04, 5.0000000000e-05, 4.2000000000e-06
2198, 4.5000000000e-04, 5.0000000000e-05, 4.2000000000e-06
2199, 4.7000000000e-04, 5.0000000000e-05, 4.2000000000e-06
2200, 4.9000000000e-04, 5.0000000000e-05, 4.2000000000e-06
2201, 4.9200000000e-04, 5.0000000000e-05, 4.2000000000e-06
2202, 4.9400000000e-04, 5.0000000000e-05, 4.2000000000e-06
2203, 4.9600000000e-04, 5.0000000000e-05, 4.2000000000e-06
2204, 4.9800000000e-04, 5.0000000000e-05, 4.2000000000e-06
2205, 5.0000000000e-04, 5.0000000000e-05, 4.2000000000e-06
2206, 5.0200000000e-04, 5.0000000000e-05, 4.2000000000e-06
2207, 5.0400000000e-04, 5.0000000000e-05, 4.2000000000e-06
2208, 5.0600000000e-04, 5.0000000000e-05, 4.2000000000e-06
2209, 5.0800000000e-04, 5.0000000000e-05, 4.2000000000e-06
2210, 5.1000000000e-04, 5.0000000000e-05, 4.2000000000e-06
2211, 5.2500000000e-04, 5.0000000000e-05, 4.2000000000e-06
2212, 5.4000000000e-04, 5.0000000000e-05, 4.2000000000e-06
2213, 5.5500000000e-04, 5.0000000000e-05, 4.2000000000e-06
2214, 5.7000000000e-04, 5.0000000000e-05, 4.2000000000e-06
2215, 5.8500000000e-04, 5.0000000000e-05, 4.2000000000e-06
2216, 6.0000000000e-04, 5.0000000000e-05, 4.2000000000e-06
2217, 0.0000000000e+00, 0.0000000000e+00, 4.6000000000e-06
2218, 1.5000000000e-05, 0.0000000000e+00, 4.6000000000e-06
2219, 3.0000000000e-05, 0.0000000000e+00, 4.6000000000e-06
2220, 4.5000000000e-05, 0.0000000000e+00, 4.6000000000e-06
2221, 6.0000000000e-05, 0.0000000000e+00, 4.6000000000e-06
2222, 7.5000000000e-05, 0.0000000000e+00, 4.6000000000e-06
2223, 9.0000000000e-05, 0.0000000000e+00, 4.6000000000e-06
2224, 9.2000000000e-05, 0.0000000000e+00, 4.6000000000e-06
2225, 9.4000000000e-05, 0.0000000000e+00, 4.6000000000e-06
2226, 9.6000000000e-05, 0.0000000000e+00, 4.6000000000e-06
2227, 9.8000000000e-05, 0.0000000000e+00, 4.6000000000e-06
2228, 1.0000000000e-04, 0.0000000000e+00, 4.6000000000e-06
2229, 1.0200000000e-04, 0.0000000000e+00, 4.6000000000e-06
2230, 1.0400000000e-04, 0.0000000000e+00, 4.6000000000e-06
2231, 1.0600000000e-04, 0.0000000000e+00, 4.6000000000e-06
2232, 1.0800000000e-04, 0.0000000000e+00, 4.6000000000e-06
2233, 1.1000000000e-04, 0.0000000000e+00, 4.6000000000e-06
2234, 1.3000000000e-04, 0.0000000000e+00, 4.6000000000e-06
2235, 1.5000000000e-04, 0.0000000000e+00, 4.6000000000e-06
2236, 1.7000000000e-04, 0.0000000000e+00, 4.6000000000e-06
2237, 1.9000000000e-04, 0.0000000000e+00, 4.6000000000e-06
2238, 2.1000000000e-04, 0.0000000000e+00, 4.6000000000e-06
2239, 2.3000000000e-04, 0.0000000000e+00, 4.6000000000e-06
2240, 2.5000000000e-04, 0.0000000000e+00, 4.6000000000e-06
2241, 2.7000000000e-04, 0.0000000000e+00, 4.6000000000e-06
2242, 2.9000000000e-04, 0.0000000000e+00, 4.6000000000e-06
2243, 3.1000000000e-04, 0.0000000000e+00, 4.6000000000e-06
2244, 3.3000000000e-04, 0.0000000000e+00, 4.6000000000e-06
2245, 3.5000000000e-04, 0.0000000000e+00, 4.6000000000e-06
2246, 3.7000000000e-04, 0.0000000000e+00, 4.6000000000e-06
2247, 3.9000000000e-04, 0.0000000000e+00, 4.6000000000e-06
2248, 4.1000000000e-04, 0.0000000000e+00, 4.6000000000e-06
2249, 4.3000000000e-04, 0.0000000000e+00, 4.6000000000e-06
2250, 4.5000000000e-04, 0.0000000000e+00, 4.6000000000e-06
2251, 4.7000000000e-04, 0.0000000000e+00, 4.6000000000e-06
2252, 4.9000000000e-04, 0.0000000000e+00, 4.6000000000e-06
2253, 4.9200000000e-04, 0.0000000000e+00, 4.6000000000e-06
2254, 4.9400000000e-04, 0.0000000000e+00, 4.6000000000e-06
2255, 4.9600000000e-04, 0.0000000000e+00, 4.6000000000e-06
2256, 4.9800000000e-04, 0.0000000000e+00, 4.6000000000e-06
2257, 5.0000000000e-04, 0.0000000000e+00, 4.6000000000e-06
2258, 5.0200000000e-04, 0.0000000000e+00, 4.6000000000e-06
2259, 5.0400000000e-04, 0.0000000000e+00, 4.6000000000e-06
2260, 5.0600000000e-04, 0.0000000000e+00, 4.6000000000e-06
2261, 5.0800000000e-04, 0.0000000000e+00, 4.6000000000e-06
2262, 5.1000000000e-04, 0.0000000000e+00, 4.6000000000e-06
2263, 5.2500000000e-04, 0.0000000000e+00, 4.6000000000e-06
2264, 5.4000000000e-04, 0.0000000000e+00, 4.6000000000e-06
2265, 5.5500000000e-04, 0.0000000000e+00, 4.6000000000e-06
2266, 5.7000000000e-04, 0.0000000000e+00, 4.6000000000e-06
2267, 5.8500000000e-04, 0.0000000000e+00, 4.6000000000e-06
2268, 6.0000000000e-04, 0.0000000000e+00, 4.6000000000e-06
2269, 0.0000000000e+00, 5.0000000000e-05, 4.6000000000e-06
2270, 1.5000000000e-05, 5.0000000000e-05, 4.6000000000e-06
2271, 3.0000000000e-05, 5.0000000000e-05, 4.6000000000e-06
2272, 4.5000000000e-05, 5.0000000000e-05, 4.6000000000e-06
2273, 6.0000000000e-05, 5.0000000000e-05, 4.6000000000e-06
2274, 7.5000000000e-05, 5.0000000000e-05, 4.6000000000e-06
2275, 9.0000000000e-05, 5.0000000000e-05, 4.6000000000e-06
2276, 9.2000000000e-05, 5.0000000000e-05, 4.6000000000e-06
2277, 9.4000000000e-05, 5.0000000000e-05, 4.6000000000e-06
2278, 9.6000000000e-05, 5.0000000000e-05, 4.6000000000e-06
2279, 9.8000000000e-05, 5.0000000000e-05, 4.6000000000e-06
2280, 1.0000000000e-04, 5.0000000000e-05, 4.6000000000e-06
2281, 1.0200000000e-04, 5.0000000000e-05, 4.6000000000e-06
2282, 1.0400000000e-04, 5.0000000000e-05, 4.6000000000e-06
2283, 1.0600000000e-04, 5.0000000000e-05, 4.6000000000e-06
2284, 1.0800000000e-04, 5.0000000000e-05, 4.6000000000e-06
2285, 1.1000000000e-04, 5.0000000000e-05, 4.6000000000e-06
2286, 1.3000000000e-04, 5.0000000000e-05, 4.6000000000e-06
2287, 1.5000000000e-04, 5.0000000000e-05, 4.6000000000e-06
2288, 1.7000000000e-04, 5.0000000000e-05, 4.6000000000e-06
2289, 1.9000000000e-04, 5.0000000000e-05, 4.6000000000e-06
2290, 2.1000000000e-04, 5.0000000000e-05, 4.6000000000e-06
2291, 2.3000000000e-04, 5.0000000000e-05, 4.6000000000e-06
2292, 2.5000000000e-04, 5.0000000000e-05, 4.6000000000e-06
2293, 2.7000000000e-04, 5.0000000000e-05, 4.6000000000e-06
2294, 2.9000000000e-04, 5.0000000000e-05, 4.6000000000e-06
2295, 3.1000000000e-04, 5.0000000000e-05, 4.6000000000e-06
2296, 3.3000000000e-04, 5.0000000000e-05, 4.6000000000e-06
2297, 3.5000000000e-04, 5.0000000000e-05, 4.6000000000e-06
2298, 3.7000000000e-04, 5.0000000000e-05, 4.6000000000e-06
2299, 3.9000000000e-04, 5.0000000000e-05, 4.6000000000e-06
2300, 4.1000000000e-04, 5.0000000000e-05, 4.6000000000e-06
2301, 4.3000000000e-04, 5.0000000000e-05, 4.6000000000e-06
2302, 4.5000000000e-04, 5.0000000000e-05, 4.6000000000e-06
2303, 4.7000000000e-04, 5.0000000000e-05, 4.6000000000e-06
2304, 4.9000000000e-04, 5.0000000000e-05, 4.6000000000e-06
2305, 4.9200000000e-04, 5.0000000000e-05, 4.6000000000e-06
2306, 4.9400000000e-04, 5.0000000000e-05, 4.6000000000e-06
2307, 4.9600000000e-04, 5.0000000000e-05, 4.6000000000e-06
2308, 4.9800000000e-04, 5.0000000000e-05, 4.6000000000e-06
2309, 5.0000000000e-04, 5.0000000000e-05, 4.6000000000e-06
2310, 5.0200000000e-04, 5.0000000000e-05, 4.6000000000e-06
2311, 5.0400000000e-04, 5.0000000000e-05, 4.6000000000e-06
2312, 5.0600000000e-04, 5.0000000000e-05, 4.6000000000e-06
2313, 5.0800000000e-04, 5.0000000000e-05, 4.6000000000e-06
2314, 5.1000000000e-04, 5.0000000000e-05, 4.6000000000e-06
2315, 5.2500000000e-04, 5.0000000000e-05, 4.6000000000e-06
2316, 5.4000000000e-04, 5.0000000000e-05, 4.6000000000e-06
2317, 5.5500000000e-04, 5.0000000000e-05, 4.6000000000e-06
2318, 5.7000000000e-04, 5.0000000000e-05, 4.6000000000e-06
2319, 5.8500000000e-04, 5.0000000000e-05, 4.6000000000e-06
2320, 6.0000000000e-04, 5.0000000000e-05, 4.6000000000e-06
2321, 0.0000000000e+00, 0.0000000000e+00, 5.0000000000e-06
2322, 1.5000000000e-05, 0.0000000000e+00, 5.0000000000e-06
2323, 3.0000000000e-05, 0.0000000000e+00, 5.0000000000e-06
2324, 4.5000000000e-05, 0.0000000000e+00, 5.0000000000e-06
2325, 6.0000000000e-05, 0.0000000000e+00, 5.0000000000e-06
2326, 7.5000000000e-05, 0.0000000000e+00, 5.0000000000e-06
2327, 9.0000000000e-05, 0.0000000000e+00, 5.0000000000e-06
2328, 9.2000000000e-05, 0.0000000000e+00, 5.0000000000e-06
2329, 9.4000000000e-05, 0.0000000000e+00, 5.0000000000e-06
2330, 9.6000000000e-05, 0.0000000000e+00, 5.0000000000e-06
2331, 9.8000000000e-05, 0.0000000000e+00, 5.0000000000e-06
2332, 1.0000000000e-04, 0.0000000000e+00, 5.0000000000e-06
2333, 1.0200000000e-04, 0.0000000000e+00, 5.0000000000e-06
2334, 1.0400000000e-04, 0.0000000000e+00, 5.0000000000e-06
2335, 1.0600000000e-04, 0.0000000000e+00, 5.0000000000e-06
2336, 1.0800000000e-04, 0.0000000000e+00, 5.0000000000e-06
2337, 1.1000000000e-04, 0.0000000000e+00, 5.0000000000e-06
2338, 1.3000000000e-04, 0.0000000000e+00, 5.0000000000e-06
2339, 1.5000000000e-04, 0.0000000000e+00, 5.0000000000e-06
2340, 1.7000000000e-04, 0.0000000000e+00, 5.0000000000e-06
2341, 1.9000000000e-04, 0.0000000000e+00, 5.0000000000e-06
2342, 2.1000000000e-04, 0.0000000000e+00, 5.0000000000e-06
2343, 2.3000000000e-04, 0.0000000000e+00, 5.0000000000e-06
2344, 2.5000000000e-04, 0.0000000000e+00, 5.0000000000e-06
2345, 2.7000000000e-04, 0.0000000000e+00, 5.0000000000e-06
2346, 2.9000000000e-04, 0.0000000000e+00, 5.0000000000e-06
2347, 3.1000000000e-04, 0.0000000000e+00, 5.0000000000e-06
2348, 3.3000000000e-04, 0.0000000000e+00, 5.0000000000e-06
2349, 3.5000000000e-04, 0.0000000000e+00, 5.0000000000e-06
2350, 3.7000000000e-04, 0.0000000000e+00, 5.0000000000e-06
2351, 3.9000000000e-04, 0.0000000000e+00, 5.0000000000e-06
2352, 4.1000000000e-04, 0.0000000000e+00, 5.0000000000e-06
2353, 4.3000000000e-04, 0.0000000000e+00, 5.0000000000e-06
2354, 4.5000000000e-04, 0.0000000000e+00, 5.0000000000e-06
2355, 4.7000000000e-04, 0.0000000000e+00, 5.0000000000e-06
2356, 4.9000000000e-04, 0.0000000000e+00, 5.0000000000e-06
2357, 4.9200000000e-04, 0.0000000000e+00, 5.0000000000e-06
2358, 4.9400000000e-04, 0.0000000000e+00, 5.0000000000e-06
2359, 4.9600000000e-04, 0.0000000000e+00, 5.0000000000e-06
2360, 4.9800000000e-04, 0.0000000000e+00, 5.0000000000e-06
2361, 5.0000000000e-04, 0.0000000000e+00, 5.0000000000e-06
2362, 5.0200000000e-04, 0.0000000000e+00, 5.0000000000e-06
2363, 5.0400000000e-04, 0.0000000000e+00, 5.0000000000e-06
2364, 5.0600000000e-04, 0.0000000000e+00, 5.0000000000e-06
2365, 5.0800000000e-04, 0.0000000000e+00, 5.0000000000e-06
2366, 5.1000000000e-04, 0.0000000000e+00, 5.0000000000e-06
2367, 5.2500000000e-04, 0.0000000000e+00, 5.0000000000e-06
2368, 5.4000000000e-04, 0.0000000000e+00, 5.0000000000e-06
2369, 5.5500000000e-04, 0.0000000000e+00, 5.0000000000e-06
2370, 5.7000000000e-04, 0.0000000000e+00, 5.0000000000e-06
2371, 5.8500000000e-04, 0.0000000000e+00, 5.0000000000e-06
2372, 6.0000000000e-04, 0.0000000000e+00, 5.0000000000e-06
2373, 0.0000000000e+00, 5.0000000000e-05, 5.0000000000e-06
2374, 1.5000000000e-05, 5.0000000000e-05, 5.0000000000e-06
2375, 3.0000000000e-05, 5.0000000000e-05, 5.0000000000e-06
2376, 4.5000000000e-05, 5.0000000000e-05, 5.0000000000e-06
2377, 6.0000000000e-05, 5.0000000000e-05, 5.0000000000e-06
2378, 7.5000000000e-05, 5.0000000000e-05, 5.0000000000e-06
2379, 9.0000000000e-05, 5.0000000000e-05, 5.0000000000e-06
2380, 9.2000000000e-05, 5.0000000000e-05, 5.0000000000e-06
2381, 9.4000000000e-05, 5.0000000000e-05, 5.0000000000e-06
2382, 9.6000000000e-05, 5.0000000000e-05, 5.0000000000e-06
2383, 9.8000000000e-05, 5.0000000000e-05, 5.0000000000e-06
2384, 1.0000000000e-04, 5.0000000000e-05, 5.0000000000e-06
2385, 1.0200000000e-04, 5.0000000000e-05, 5.0000000000e-06
2386, 1.0400000000e-04, 5.0000000000e-05, 5.0000000000e-06
2387, 1.0600000000e-04, 5.0000000000e-05, 5.0000000000e-06
2388, 1.0800000000e-04, 5.0000000000e-05, 5.0000000000e-06
2389, 1.1000000000e-04, 5.0000000000e-05, 5.0000000000e-06
2390, 1.3000000000e-04, 5.0000000000e-05, 5.0000000000e-06
2391, 1.5000000000e-04, 5.0000000000e-05, 5.0000000000e-06
2392, 1.7000000000e-04, 5.0000000000e-05, 5.0000000000e-06
2393, 1.9000000000e-04, 5.0000000000e-05, 5.0000000000e-06
2394, 2.1000000000e-04, 5.0000000000e-05, 5.0000000000e-06
2395, 2.3000000000e-04, 5.0000000000e-05, 5.0000000000e-06
2396, 2.5000000000e-04, 5.0000000000e-05, 5.0000000000e-06
2397, 2.7000000000e-04, 5.0000000000e-05, 5.0000000000e-06
2398, 2.9000000000e-04, 5.0000000000e-05, 5.0000000000e-06
2399, 3.1000000000e-04, 5.0000000000e-05, 5.0000000000e-06
2400, 3.3000000000e-04, 5.0000000000e-05, 5.0000000000e-06
2401, 3.5000000000e-04, 5.0000000000e-05, 5.0000000000e-06
2402, 3.7000000000e-04, 5.0000000000e-05, 5.0000000000e-06
2403, 3.9000000000e-04, 5.0000000000e-05, 5.0000000000e-06
2404, 4.1000000000e-04, 5.0000000000e-05, 5.0000000000e-06
2405, 4.3000000000e-04, 5.0000000000e-05, 5.0000000000e-06
2406, 4.5000000000e-04, 5.0000000000e-05, 5.0000000000e-06
2407, 4.7000000000e-04, 5.0000000000e-05, 5.0000000000e-06
2408, 4.9000000000e-04, 5.0000000000e-05, 5.0000000000e-06
2409, 4.9200000000e-04, 5.0000000000e-05, 5.0000000000e-06
2410, 4.9400000000e-04, 5.0000000000e-05, 5.0000000000e-06
2411, 4.9600000000e-04, 5.0000000000e-05, 5.0000000000e-06
2412, 4.9800000000e-04, 5.0000000000e-05, 5.0000000000e-06
2413, 5.0000000000e-04, 5.0000000000e-05, 5.0000000000e-06
2414, 5.0200000000e-04, 5.0000000000e-05, 5.0000000000e-06
2415, 5.0400000000e-04, 5.0000000000e-05, 5.0000000000e-06
2416, 5.0600000000e-04, 5.0000000000e-05, 5.0000000000e-06
2417, 5.0800000000e-04, 5.0000000000e-05, 5.0000000000e-06
2418, 5.1000000000e-04, 5.0000000000e-05, 5.0000000000e-06
2419, 5.2500000000e-04, 5.0000000000e-05, 5.0000000000e-06
2420, 5.4000000000e-04, 5.0000000000e-05, 5.0000000000e-06
2421, 5.5500000000e-04, 5.0000000000e-05, 5.0000000000e-06
2422, 5.7000000000e-04, 5.0000000000e-05, 5.0000000000e-06
2423, 5.8500000000e-04, 5.0000000000e-05, 5.0000000000e-06
2424, 6.0000000000e-04, 5.0000000000e-05, 5.0000000000e-06
2425, 0.0000000000e+00, 0.0000000000e+00, 7.5000000000e-06
2426, 1.5000000000e-05, 0.0000000000e+00, 7.5000000000e-06
2427, 3.0000000000e-05, 0.0000000000e+00, 7.5000000000e-06
2428, 4.5000000000e-05, 0.0000000000e+00, 7.5000000000e-06
2429, 6.0000000000e-05, 0.0000000000e+00, 7.5000000000e-06
2430, 7.5000000000e-05, 0.0000000000e+00, 7.5000000000e-06
2431, 9.0000000000e-05, 0.0000000000e+00, 7.5000000000e-06
2432, 9.2000000000e-05, 0.0000000000e+00, 7.5000000000e-06
2433, 9.4000000000e-05, 0.0000000000e+00, 7.5000000000e-06
2434, 9.6000000000e-05, 0.0000000000e+00, 7.5000000000e-06
2435, 9.8000000000e-05, 0.0000000000e+00, 7.5000000000e-06
2436, 1.0000000000e-04, 0.0000000000e+00, 7.5000000000e-06
2437, 1.0200000000e-04, 0.0000000000e+00, 7.5000000000e-06
2438, 1.0400000000e-04, 0.0000000000e+00, 7.5000000000e-06
2439, 1.0600000000e-04, 0.0000000000e+00, 7.5000000000e-06
2440, 1.0800000000e-04, 0.0000000000e+00, 7.5000000000e-06
2441, 1.1000000000e-04, 0.0000000000e+00, 7.5000000000e-06
2442, 1.3000000000e-04, 0.0000000000e+00, 7.5000000000e-06
2443, 1.5000000000e-04, 0.0000000000e+00, 7.5000000000e-06
2444, 1.7000000000e-04, 0.0000000000e+00, 7.5000000000e-06
2445, 1.9000000000e-04, 0.0000000000e+00, 7.5000000000e-06
2446, 2.1000000000e-04, 0.0000000000e+00, 7.5000000000e-06
2447, 2.3000000000e-04, 0.0000000000e+00, 7.5000000000e-06
2448, 2.5000000000e-04, 0.0000000000e+00, 7.5000000000e-06
2449, 2.7000000000e-04, 0.0000000000e+00, 7.5000000000e-06
2450, 2.9000000000e-04, 0.0000000000e+00, 7.5000000000e-06
2451, 3.1000000000e-04, 0.0000000000e+00, 7.5000000000e-06
2452, 3.3000000000e-04, 0.0000000000e+00, 7.5000000000e-06
2453, 3.5000000000e-04, 0.0000000000e+00, 7.5000000000e-06
2454, 3.7000000000e-04, 0.0000000000e+00, 7.5000000000e-06
2455, 3.9000000000e-04, 0.0000000000e+00, 7.5000000000e-06
2456, 4.1000000000e-04, 0.0000000000e+00, 7.5000000000e-06
2457, 4.3000000000e-04, 0.0000000000e+00, 7.5000000000e-06
2458, 4.5000000000e-04, 0.0000000000e+00, 7.5000000000e-06
2459, 4.7000000000e-04, 0.0000000000e+00, 7.5000000000e-06
2460, 4.9000000000e-04, 0.0000000000e+00, 7.5000000000e-06
2461, 4.9200000000e-04, 0.0000000000e+00, 7.5000000000e-06
2462, 4.9400000000e-04, 0.0000000000e+00, 7.5000000000e-06
2463, 4.9600000000e-04, 0.0000000000e+00, 7.5000000000e-06
2464, 4.9800000000e-04, 0.0000000000e+00, 7.5000000000e-06
2465, 5.0000000000e-04, 0.0000000000e+00, 7.5000000000e-06
2466, 5.0200000000e-04, 0.0000000000e+00, 7.5000000000e-06
2467, 5.0400000000e-04, 0.0000000000e+00, 7.5000000000e-06
2468, 5.0600000000e-04, 0.0000000000e+00, 7.5000000000e-06
2469, 5.0800000000e-04, 0.0000000000e+00, 7.5000000000e-06
2470, 5.1000000000e-04, 0.0000000000e+00, 7.5000000000e-06
2471, 5.2500000000e-04, 0.0000000000e+00, 7.5000000000e-06
2472, 5.4000000000e-04, 0.0000000000e+00, 7.5000000000e-06
2473, 5.5500000000e-04, 0.0000000000e+00, 7.5000000000e-06
2474, 5.7000000000e-04, 0.0000000000e+00, 7.5000000000e-06
2475, 5.8500000000e-04, 0.0000000000e+00, 7.5000000000e-06
2476, 6.0000000000e-04, 0.0000000000e+00, 7.5000000000e-06
2477, 0.0000000000e+00, 5.0000000000e-05, 7.5000000000e-06
2478, 1.5000000000e-05, 5.0000000000e-05, 7.5000000000e-06
2479, 3.0000000000e-05, 5.0000000000e-05, 7.5000000000e-06
2480, 4.5000000000e-05, 5.0000000000e-05, 7.5000000000e-06
2481, 6.0000000000e-05, 5.0000000000e-05, 7.5000000000e-06
2482, 7.5000000000e-05, 5.0000000000e-05, 7.5000000000e-06
2483, 9.0000000000e-05, 5.0000000000e-05, 7.5000000000e-06
2484, 9.2000000000e-05, 5.0000000000e-05, 7.5000000000e-06
2485, 9.4000000000e-05, 5.0000000000e-05, 7.5000000000e-06
2486, 9.6000000000e-05, 5.0000000000e-05, 7.5000000000e-06
2487, 9.8000000000e-05, 5.0000000000e-05, 7.5000000000e-06
2488, 1.0000000000e-04, 5.0000000000e-05, 7.5000000000e-06
2489, 1.0200000000e-04, 5.0000000000e-05, 7.5000000000e-06
2490, 1.0400000000e-04, 5.0000000000e-05, 7.5000000000e-06
2491, 1.0600000000e-04, 5.0000000000e-05, 7.5000000000e-06
2492, 1.0800000000e-04, 5.0000000000e-05, 7.5000000000e-06
2493, 1.1000000000e-04, 5.0000000000e-05, 7.5000000000e-06
2494, 1.3000000000e-04, 5.0000000000e-05, 7.5000000000e-06
2495, 1.5000000000e-04, 5.0000000000e-05, 7.5000000000e-06
2496, 1.7000000000e-04, 5.0000000000e-05, 7.5000000000e-06
2497, 1.9000000000e-04, 5.0000000000e-05, 7.5000000000e-06
2498, 2.1000000000e-04, 5.0000000000e-05, 7.5000000000e-06
2499, 2.3000000000e-04, 5.0000000000e-05, 7.5000000000e-06
2500, 2.5000000000e-04, 5.0000000000e-05, 7.5000000000e-06
2501, 2.7000000000e-04, 5.0000000000e-05, 7.5000000000e-06
2502, 2.9000000000e-04, 5.0000000000e-05, 7.5000000000e-06
2503, 3.1000000000e-04, 5.0000000000e-05, 7.5000000000e-06
2504, 3.3000000000e-04, 5.0000000000e-05, 7.5000000000e-06
2505, 3.5000000000e-04, 5.0000000000e-05, 7.5000000000e-06
2506, 3.7000000000e-04, 5.0000000000e-05, 7.5000000000e-06
2507, 3.9000000000e-04, 5.0000000000e-05, 7.5000000000e-06
2508, 4.1000000000e-04, 5.0000000000e-05, 7.5000000000e-06
2509, 4.3000000000e-04, 5.0000000000e-05, 7.5000000000e-06
2510, 4.5000000000e-04, 5.0000000000e-05, 7.5000000000e-06
2511, 4.7000000000e-04, 5.0000000000e-05, 7.5000000000e-06
2512, 4.9000000000e-04, 5.0000000000e-05, 7.5000000000e-06
2513, 4.9200000000e-04, 5.0000000000e-05, 7.5000000000e-06
2514, 4.9400000000e-04, 5.0000000000e-05, 7.5000000000e-06
2515, 4.9600000000e-04, 5.0000000000e-05, 7.5000000000e-06
2516, 4.9800000000e-04, 5.0000000000e-05, 7.5000000000e-06
2517, 5.0000000000e-04, 5.0000000000e-05, 7.5000000000e-06
2518, 5.0200000000e-04, 5.0000000000e-05, 7.5000000000e-06
2519, 5.0400000000e-04, 5.0000000000e-05, 7.5000000000e-06
2520, 5.0600000000e-04, 5.0000000000e-05, 7.5000000000e-06
2521, 5.0800000000e-04, 5.0000000000e-05, 7.5000000000e-06
2522, 5.1000000000e-04, 5.0000000000e-05, 7.5000000000e-06
2523, 5.2500000000e-04, 5.0000000000e-05, 7.5000000000e-06
2524, 5.4000000000e-04, 5.0000000000e-05, 7.5000000000e-06
2525, 5.5500000000e-04, 5.0000000000e-05, 7.5000000000e-06
2526, 5.7000000000e-04, 5.0000000000e-05, 7.5000000000e-06
2527, 5.8500000000e-04, 5.0000000000e-05, 7.5000000000e-06
2528, 6.0000000000e-04, 5.0000000000e-05, 7.5000000000e-06
2529, 0.0000000000e+00, 0.0000000000e+00, 1.0000000000e-05
2530, 1.5000000000e-05, 0.0000000000e+00, 1.0000000000e-05
2531, 3.0000000000e-05, 0.0000000000e+00, 1.0000000000e-05
2532, 4.5000000000e-05, 0.0000000000e+00, 1.0000000000e-05
2533, 6.0000000000e-05, 0.0000000000e+00, 1.0000000000e-05
2534, 7.5000000000e-05, 0.0000000000e+00, 1.0000000000e-05
2535, 9.0000000000e-05, 0.0000000000e+00, 1.0000000000e-05
2536, 9.2000000000e-05, 0.0000000000e+00, 1.0000000000e-05
2537, 9.4000000000e-05, 0.0000000000e+00, 1.0000000000e-05
2538, 9.6000000000e-05, 0.0000000000e+00, 1.0000000000e-05
2539, 9.8000000000e-05, 0.0000000000e+00, 1.0000000000e-05
2540, 1.0000000000e-04, 0.0000000000e+00, 1.0000000000e-05
2541, 1.0200000000e-04, 0.0000000000e+00, 1.0000000000e-05
2542, 1.0400000000e-04, 0.0000000000e+00, 1.0000000000e-05
2543, 1.0600000000e-04, 0.0000000000e+00, 1.0000000000e-05
2544, 1.0800000000e-04, 0.0000000000e+00, 1.0000000000e-05
2545, 1.1000000000e-04, 0.0000000000e+00, 1.0000000000e-05
2546, 1.3000000000e-04, 0.0000000000e+00, 1.0000000000e-05
2547, 1.5000000000e-04, 0.0000000000e+00, 1.0000000000e-05
2548, 1.7000000000e-04, 0.0000000000e+00, 1.0000000000e-05
2549, 1.9000000000e-04, 0.0000000000e+00, 1.0000000000e-05
2550, 2.1000000000e-04, 0.0000000000e+00, 1.0000000000e-05
2551, 2.3000000000e-04, 0.0000000000e+00, 1.0000000000e-05
2552, 2.5000000000e-04, 0.0000000000e+00, 1.0000000000e-05
2553, 2.7000000000e-04, 0.0000000000e+00, 1.0000000000e-05
2554, 2.9000000000e-04, 0.0000000000e+00, 1.0000000000e-05
2555, 3.1000000000e-04, 0.0000000000e+00, 1.0000000000e-05
2556, 3.3000000000e-04, 0.0000000000e+00, 1.0000000000e-05
2557, 3.5000000000e-04, 0.0000000000e+00, 1.0000000000e-05
2558, 3.7000000000e-04, 0.0000000000e+00, 1.0000000000e-05
2559, 3.9000000000e-04, 0.0000000000e+00, 1.0000000000e-05
2560, 4.1000000000e-04, 0.0000000000e+00, 1.0000000000e-05
2561, 4.3000000000e-04, 0.0000000000e+00, 1.0000000000e-05
2562, 4.5000000000e-04, 0.0000000000e+00, 1.0000000000e-05
2563, 4.7000000000e-04, 0.0000000000e+00, 1.0000000000e-05
2564, 4.9000000000e-04, 0.0000000000e+00, 1.0000000000e-05
2565, 4.9200000000e-04, 0.0000000000e+00, 1.0000000000e-05
2566, 4.9400000000e-04, 0.0000000000e+00, 1.0000000000e-05
2567, 4.9600000000e-04, 0.0000000000e+00, 1.0000000000e-05
2568, 4.9800000000e-04, 0.0000000000e+00, 1.0000000000e-05
2569, 5.0000000000e-04, 0.0000000000e+00, 1.0000000000e-05
2570, 5.0200000000e-04, 0.0000000000e+00, 1.0000000000e-05
2571, 5.0400000000e-04, 0.0000000000e+00, 1.0000000000e-05
2572, 5.0600000000e-04, 0.0000000000e+00, 1.0000000000e-05
2573, 5.0800000000e-04, 0.0000000000e+00, 1.0000000000e-05
2574, 5.1000000000e-04, 0.0000000000e+00, 1.0000000000e-05
2575, 5.2500000000e-04, 0.0000000000e+00, 1.0000000000e-05
2576, 5.4000000000e-04, 0.0000000000e+00, 1.0000000000e-05
2577, 5.5500000000e-04, 0.0000000000e+00, 1.0000000000e-05
2578, 5.7000000000e-04, 0.0000000000e+00, 1.0000000000e-05
2579, 5.8500000000e-04, 0.0000000000e+00, 1.0000000000e-05
2580, 6.0000000000e-04, 0.0000000000e+00, 1.0000000000e-05
2581, 0.0000000000e+00, 5.0000000000e-05, 1.0000000000e-05
2582, 1.5000000000e-05, 5.0000000000e-05, 1.0000000000e-05
2583, 3.0000000000e-05, 5.0000000000e-05, 1.0000000000e-05
2584, 4.5000000000e-05, 5.0000000000e-05, 1.0000000000e-05
2585, 6.0000000000e-05, 5.0000000000e-05, 1.0000000000e-05
2586, 7.5000000000e-05, 5.0000000000e-05, 1.0000000000e-05
2587, 9.0000000000e-05, 5.0000000000e-05, 1.0000000000e-05
2588, 9.2000000000e-05, 5.0000000000e-05, 1.0000000000e-05
2589, 9.4000000000e-05, 5.0000000000e-05, 1.0000000000e-05
2590, 9.6000000000e-05, 5.0000000000e-05, 1.0000000000e-05
2591, 9.8000000000e-05, 5.0000000000e-05, 1.0000000000e-05
2592, 1.0000000000e-04, 5.0000000000e-05, 1.0000000000e-05
2593, 1.0200000000e-04, 5.0000000000e-05, 1.0000000000e-05
2594, 1.0400000000e-04, 5.0000000000e-05, 1.0000000000e-05
2595, 1.0600000000e-04, 5.0000000000e-05, 1.0000000000e-05
2596, 1.0800000000e-04, 5.0000000000e-05, 1.0000000000e-05
2597, 1.1000000000e-04, 5.0000000000e-05, 1.0000000000e-05
2598, 1.3000000000e-04, 5.0000000000e-05, 1.0000000000e-05
2599, 1.5000000000e-04, 5.0000000000e-05, 1.0000000000e-05
2600, 1.7000000000e-04, 5.0000000000e-05, 1.0000000000e-05
2601, 1.9000000000e-04, 5.0000000000e-05, 1.0000000000e-05
2602, 2.1000000000e-04, 5.0000000000e-05, 1.0000000000e-05
2603, 2.3000000000e-04, 5.0000000000e-05, 1.0000000000e-05
2604, 2.5000000000e-04, 5.0000000000e-05, 1.0000000000e-05
2605, 2.7000000000e-04, 5.0000000000e-05, 1.0000000000e-05
2606, 2.9000000000e-04, 5.0000000000e-05, 1.0000000000e-05
2607, 3.1000000000e-04, 5.0000000000e-05, 1.0000000000e-05
2608, 3.3000000000e-04, 5.0000000000e-05, 1.0000000000e-05
2609, 3.5000000000e-04, 5.0000000000e-05, 1.0000000000e-05
2610, 3.7000000000e-04, 5.0000000000e-05, 1.0000000000e-05
2611, 3.9000000000e-04, 5.0000000000e-05, 1.0000000000e-05
2612, 4.1000000000e-04, 5.0000000000e-05, 1.0000000000e-05
2613, 4.3000000000e-04, 5.0000000000e-05, 1.0000000000e-05
2614, 4.5000000000e-04, 5.0000000000e-05, 1.0000000000e-05
2615, 4.7000000000e-04, 5.0000000000e-05, 1.0000000000e-05
2616, 4.9000000000e-04, 5.0000000000e-05, 1.0000000000e-05
2617, 4.9200000000e-04, 5.0000000000e-05, 1.0000000000e-05
2618, 4.9400000000e-04, 5.0000000000e-05, 1.0000000000e-05
2619, 4.9600000000e-04, 5.0000000000e-05, 1.0000000000e-05
2620, 4.9800000000e-04, 5.0000000000e-05, 1.0000000000e-05
2621, 5.0000000000e-04, 5.0000000000e-05, 1.0000000000e-05
2622, 5.0200000000e-04, 5.0000000000e-05, 1.0000000000e-05
2623, 5.0400000000e-04, 5.0000000000e-05, 1.0000000000e-05
2624, 5.0600000000e-04, 5.0000000000e-05, 1.0000000000e-05
2625, 5.0800000000e-04, 5.0000000000e-05, 1.0000000000e-05
2626, 5.1000000000e-04, 5.0000000000e-05, 1.0000000000e-05
2627, 5.2500000000e-04, 5.0000000000e-05, 1.0000000000e-05
2628, 5.4000000000e-04, 5.0000000000e-05, 1.0000000000e-05
2629, 5.5500000000e-04, 5.0000000000e-05, 1.0000000000e-05
2630, 5.7000000000e-04, 5.0000000000e-05, 1.0000000000e-05
2631, 5.8500000000e-04, 5.0000000000e-05, 1.0000000000e-05
2632, 6.0000000000e-04, 5.0000000000e-05, 1.0000000000e-05
2633, 0.0000000000e+00, 0.0000000000e+00, 1.2500000000e-05
2634, 1.5000000000e-05, 0.0000000000e+00, 1.2500000000e-05
2635, 3.0000000000e-05, 0.0000000000e+00, 1.2500000000e-05
2636, 4.5000000000e-05, 0.0000000000e+00, 1.2500000000e-05
2637, 6.0000000000e-05, 0.0000000000e+00, 1.2500000000e-05
2638, 7.5000000000e-05, 0.0000000000e+00, 1.2500000000e-05
2639, 9.0000000000e-05, 0.0000000000e+00, 1.2500000000e-05
2640, 9.2000000000e-05, 0.0000000000e+00, 1.2500000000e-05
2641, 9.4000000000e-05, 0.0000000000e+00, 1.2500000000e-05
2642, 9.6000000000e-05, 0.0000000000e+00, 1.2500000000e-05
2643, 9.8000000000e-05, 0.0000000000e+00, 1.2500000000e-05
2644, 1.0000000000e-04, 0.0000000000e+00, 1.2500000000e-05
2645, 1.0200000000e-04, 0.0000000000e+00, 1.2500000000e-05
2646, 1.0400000000e-04, 0.0000000000e+00, 1.2500000000e-05
2647, 1.0600000000e-04, 0.0000000000e+00, 1.2500000000e-05
2648, 1.0800000000e-04, 0.0000000000e+00, 1.2500000000e-05
2649, 1.1000000000e-04, 0.0000000000e+00, 1.2500000000e-05
2650, 1.3000000000e-04, 0.0000000000e+00, 1.2500000000e-05
2651, 1.5000000000e-04, 0.0000000000e+00, 1.2500000000e-05
2652, 1.7000000000e-04, 0.0000000000e+00, 1.2500000000e-05
2653, 1.9000000000e-04, 0.0000000000e+00, 1.2500000000e-05
2654, 2.1000000000e-04, 0.0000000000e+00, 1.2500000000e-05
2655, 2.3000000000e-04, 0.0000000000e+00, 1.2500000000e-05
2656, 2.5000000000e-04, 0.0000000000e+00, 1.2500000000e-05
2657, 2.7000000000e-04, 0.0000000000e+00, 1.2500000000e-05
2658, 2.9000000000e-04, 0.0000000000e+00, 1.2500000000e-05
2659, 3.1000000000e-04, 0.0000000000e+00, 1.2500000000e-05
2660, 3.3000000000e-04, 0.0000000000e+00, 1.2500000000e-05
2661, 3.5000000000e-04, 0.0000000000e+00, 1.2500000000e-05
2662, 3.7000000000e-04, 0.0000000000e+00, 1.2500000000e-05
2663, 3.9000000000e-04, 0.0000000000e+00, 1.2500000000e-05
2664, 4.1000000000e-04, 0.0000000000e+00, 1.2500000000e-05
2665, 4.3000000000e-04, 0.0000000000e+00, 1.2500000000e-05
2666, 4.5000000000e-04, 0.0000000000e+00, 1.2500000000e-05
2667, 4.7000000000e-04, 0.0000000000e+00, 1.2500000000e-05
2668, 4.9000000000e-04, 0.0000000000e+00, 1.2500000000e-05
2669, 4.9200000000e-04, 0.0000000000e+00, 1.2500000000e-05
2670, 4.9400000000e-04, 0.0000000000e+00, 1.2500000000e-05
2671, 4.9600000000e-04, 0.0000000000e+00, 1.2500000000e-05
2672, 4.9800000000e-04, 0.0000000000e+00, 1.2500000000e-05
2673, 5.0000000000e-04, 0.0000000000e+00, 1.2500000000e-05
2674, 5.0200000000e-04, 0.0000000000e+00, 1.2500000000e-05
2675, 5.0400000000e-04, 0.0000000000e+00, 1.2500000000e-05
2676, 5.0600000000e-04, 0.0000000000e+00, 1.2500000000e-05
2677, 5.0800000000e-04, 0.0000000000e+00, 1.2500000000e-05
2678, 5.1000000000e-04, 0.0000000000e+00, 1.2500000000e-05
2679, 5.2500000000e-04, 0.0000000000e+00, 1.2500000000e-05
2680, 5.4000000000e-04, 0.0000000000e+00, 1.2500000000e-05
2681, 5.5500000000e-04, 0.0000000000e+00, 1.2500000000e-05
2682, 5.7000000000e-04, 0.0000000000e+00, 1.2500000000e-05
2683, 5.8500000000e-04, 0.0000000000e+00, 1.2500000000e-05
2684, 6.0000000000e-04, 0.0000000000e+00, 1.2500000000e-05
2685, 0.0000000000e+00, 5.0000000000e-05, 1.2500000000e-05
2686, 1.5000000000e-05, 5.0000000000e-05, 1.2500000000e-05
2687, 3.0000000000e-05, 5.0000000000e-05, 1.2500000000e-05
2688, 4.5000000000e-05, 5.0000000000e-05, 1.2500000000e-05
2689, 6.0000000000e-05, 5.0000000000e-05, 1.2500000000e-05
2690, 7.5000000000e-05, 5.0000000000e-05, 1.2500000000e-05
2691, 9.0000000000e-05, 5.0000000000e-05, 1.2500000000e-05
2692, 9.2000000000e-05, 5.0000000000e-05, 1.2500000000e-05
2693, 9.4000000000e-05, 5.0000000000e-05, 1.2500000000e-05
2694, 9.6000000000e-05, 5.0000000000e-05, 1.2500000000e-05
2695, 9.8000000000e-05, 5.0000000000e-05, 1.2500000000e-05
2696, 1.0000000000e-04, 5.0000000000e-05, 1.2500000000e-05
2697, 1.0200000000e-04, 5.0000000000e-05, 1.2500000000e-05
2698, 1.0400000000e-04, 5.0000000000e-05, 1.2500000000e-05
2699, 1.0600000000e-04, 5.0000000000e-05, 1.2500000000e-05
2700, 1.0800000000e-04, 5.0000000000e-05, 1.2500000000e-05
2701, 1.1000000000e-04, 5.0000000000e-05, 1.2500000000e-05
2702, 1.3000000000e-04, 5.0000000000e-05, 1.2500000000e-05
2703, 1.5000000000e-04, 5.0000000000e-05, 1.2500000000e-05
2704, 1.7000000000e-04, 5.0000000000e-05, 1.2500000000e-05
2705, 1.9000000000e-04, 5.0000000000e-05, 1.2500000000e-05
2706, 2.1000000000e-04, 5.0000000000e-05, 1.2500000000e-05
2707, 2.3000000000e-04, 5.0000000000e-05, 1.2500000000e-05
2708, 2.5000000000e-04, 5.0000000000e-05, 1.2500000000e-05
2709, 2.7000000000e-04, 5.0000000000e-05, 1.2500000000e-05
2710, 2.9000000000e-04, 5.0000000000e-05, 1.2500000000e-05
2711, 3.1000000000e-04, 5.0000000000e-05, 1.2500000000e-05
2712, 3.3000000000e-04, 5.0000000000e-05, 1.2500000000e-05
2713, 3.5000000000e-04, 5.0000000000e-05, 1.2500000000e-05
2714, 3.7000000000e-04, 5.0000000000e-05, 1.2500000000e-05
2715, 3.9000000000e-04, 5.0000000000e-05, 1.2500000000e-05
2716, 4.1000000000e-04, 5.0000000000e-05, 1.2500000000e-05
2717, 4.3000000000e-04, 5.0000000000e-05, 1.2500000000e-05
2718, 4.5000000000e-04, 5.0000000000e-05, 1.2500000000e-05
2719, 4.7000000000e-04, 5.0000000000e-05, 1.2500000000e-05
2720, 4.9000000000e-04, 5.0000000000e-05, 1.2500000000e-05
2721, 4.9200000000e-04, 5.0000000000e-05, 1.2500000000e-05
2722, 4.9400000000e-04, 5.0000000000e-05, 1.2500000000e-05
2723, 4.9600000000e-04, 5.0000000000e-05, 1.2500000000e-05
2724, 4.9800000000e-04, 5.0000000000e-05, 1.2500000000e-05
2725, 5.0000000000e-04, 5.0000000000e-05, 1.2500000000e-05
2726, 5.0200000000e-04, 5.0000000000e-05, 1.2500000000e-05
2727, 5.0400000000e-04, 5.0000000000e-05, 1.2500000000e-05
2728, 5.0600000000e-04, 5.0000000000e-05, 1.2500000000e-05
2729, 5.0800000000e-04, 5.0000000000e-05, 1.2500000000e-05
2730, 5.1000000000e-04, 5.0000000000e-05, 1.2500000000e-05
2731, 5.2500000000e-04, 5.0000000000e-05, 1.2500000000e-05
2732, 5.4000000000e-04, 5.0000000000e-05, 1.2500000000e-05
2733, 5.5500000000e-04, 5.0000000000e-05, 1.2500000000e-05
2734, 5.7000000000e-04, 5.0000000000e-05, 1.2500000000e-05
2735, 5.8500000000e-04, 5.0000000000e-05, 1.2500000000e-05
2736, 6.0000000000e-04, 5.0000000000e-05, 1.2500000000e-05
2737, 0.0000000000e+00, 0.0000000000e+00, 1.5000000000e-05
2738, 1.5000000000e-05, 0.0000000000e+00, 1.5000000000e-05
2739, 3.0000000000e-05, 0.0000000000e+00, 1.5000000000e-05
2740, 4.5000000000e-05, 0.0000000000e+00, 1.5000000000e-05
2741, 6.0000000000e-05, 0.0000000000e+00, 1.5000000000e-05
2742, 7.5000000000e-05, 0.0000000000e+00, 1.5000000000e-05
2743, 9.0000000000e-05, 0.0000000000e+00, 1.5000000000e-05
2744, 9.2000000000e-05, 0.0000000000e+00, 1.5000000000e-05
2745, 9.4000000000e-05, 0.0000000000e+00, 1.5000000000e-05
2746, 9.6000000000e-05, 0.0000000000e+00, 1.5000000000e-05
2747, 9.8000000000e-05, 0.0000000000e+00, 1.5000000000e-05
2748, 1.0000000000e-04, 0.0000000000e+00, 1.5000000000e-05
2749, 1.0200000000e-04, 0.0000000000e+00, 1.5000000000e-05
2750, 1.0400000000e-04, 0.0000000000e+00, 1.5000000000e-05
2751, 1.0600000000e-04, 0.0000000000e+00, 1.5000000000e-05
2752, 1.0800000000e-04, 0.0000000000e+00, 1.5000000000e-05
2753, 1.1000000000e-04, 0.0000000000e+00, 1.5000000000e-05
2754, 1.3000000000e-04, 0.0000000000e+00, 1.5000000000e-05
2755, 1.5000000000e-04, 0.0000000000e+00, 1.5000000000e-05
2756, 1.7000000000e-04, 0.0000000000e+00, 1.5000000000e-05
2757, 1.9000000000e-04, 0.0000000000e+00, 1.5000000000e-05
2758, 2.1000000000e-04, 0.0000000000e+00, 1.5000000000e-05
2759, 2.3000000000e-04, 0.0000000000e+00, 1.5000000000e-05
2760, 2.5000000000e-04, 0.0000000000e+00, 1.5000000000e-05
2761, 2.7000000000e-04, 0.0000000000e+00, 1.5000000000e-05
2762, 2.9000000000e-04, 0.0000000000e+00, 1.5000000000e-05
2763, 3.1000000000e-04, 0.0000000000e+00, 1.5000000000e-05
2764, 3.3000000000e-04, 0.0000000000e+00, 1.5000000000e-05
2765, 3.5000000000e-04, 0.0000000000e+00, 1.5000000000e-05
2766, 3.7000000000e-04, 0.0000000000e+00, 1.5000000000e-05
2767, 3.9000000000e-04, 0.0000000000e+00, 1.5000000000e-05
2768, 4.1000000000e-04, 0.0000000000e+00, 1.5000000000e-05
2769, 4.3000000000e-04, 0.0000000000e+00, 1.5000000000e-05
2770, 4.5000000000e-04, 0.0000000000e+00, 1.5000000000e-05
2771, 4.7000000000e-04, 0.0000000000e+00, 1.5000000000e-05
2772, 4.9000000000e-04, 0.0000000000e+00, 1.5000000000e-05
2773, 4.9200000000e-04, 0.0000000000e+00, 1.5000000000e-05
2774, 4.9400000000e-04, 0.0000000000e+00, 1.5000000000e-05
2775, 4.9600000000e-04, 0.0000000000e+00, 1.5000000000e-05
2776, 4.9800000000e-04, 0.0000000000e+00, 1.5000000000e-05
2777, 5.0000000000e-04, 0.0000000000e+00, 1.5000000000e-05
2778, 5.0200000000e-04, 0.0000000000e+00, 1.5000000000e-05
2779, 5.0400000000e-04, 0.0000000000e+00, 1.5000000000e-05
2780, 5.0600000000e-04, 0.0000000000e+00, 1.5000000000e-05
2781, 5.0800000000e-04, 0.0000000000e+00, 1.5000000000e-05
2782, 5.1000000000e-04, 0.0000000000e+00, 1.5000000000e-05
2783, 5.2500000000e-04, 0.0000000000e+00, 1.5000000000e-05
2784, 5.4000000000e-04, 0.0000000000e+00, 1.5000000000e-05
2785, 5.5500000000e-04, 0.0000000000e+00, 1.5000000000e-05
2786, 5.7000000000e-04, 0.0000000000e+00, 1.5000000000e-05
2787, 5.8500000000e-04, 0.0000000000e+00, 1.5000000000e-05
2788, 6.0000000000e-04, 0.0000000000e+00, 1.5000000000e-05
2789, 0.0000000000e+00, 5.0000000000e-05, 1.5000000000e-05
2790, 1.5000000000e-05, 5.0000000000e-05, 1.5000000000e-05
2791, 3.0000000000e-05, 5.0000000000e-05, 1.5000000000e-05
2792, 4.5000000000e-05, 5.0000000000e-05, 1.5000000000e-05
2793, 6.0000000000e-05, 5.0000000000e-05, 1.5000000000e-05
2794, 7.5000000000e-05, 5.0000000000e-05, 1.5000000000e-05
2795, 9.0000000000e-05, 5.0000000000e-05, 1.5000000000e-05
2796, 9.2000000000e-05, 5.0000000000e-05, 1.5000000000e-05
2797, 9.4000000000e-05, 5.0000000000e-05, 1.5000000000e-05
2798, 9.6000000000e-05, 5.0000000000e-05, 1.5000000000e-05
2799, 9.8000000000e-05, 5.0000000000e-05, 1.5000000000e-05
2800, 1.0000000000e-04, 5.0000000000e-05, 1.5000000000e-05
2801, 1.0200000000e-04, 5.0000000000e-05, 1.5000000000e-05
2802, 1.0400000000e-04, 5.0000000000e-05, 1.5000000000e-05
2803, 1.0600000000e-04, 5.0000000000e-05, 1.5000000000e-05
2804, 1.0800000000e-04, 5.0000000000e-05, 1.5000000000e-05
2805, 1.1000000000e-04, 5.0000000000e-05, 1.5000000000e-05
2806, 1.3000000000e-04, 5.0000000000e-05, 1.5000000000e-05
2807, 1.5000000000e-04, 5.0000000000e-05, 1.5000000000e-05
2808, 1.7000000000e-04, 5.0000000000e-05, 1.5000000000e-05
2809, 1.9000000000e-04, 5.0000000000e-05, 1.5000000000e-05
2810, 2.1000000000e-04, 5.0000000000e-05, 1.5000000000e-05
2811, 2.3000000000e-04, 5.0000000000e-05, 1.5000000000e-05
2812, 2.5000000000e-04, 5.0000000000e-05, 1.5000000000e-05
2813, 2.7000000000e-04, 5.0000000000e-05, 1.5000000000e-05
2814, 2.9000000000e-04, 5.0000000000e-05, 1.5000000000e-05
2815, 3.1000000000e-04, 5.0000000000e-05, 1.5000000000e-05
2816, 3.3000000000e-04, 5.0000000000e-05, 1.5000000000e-05
2817, 3.5000000000e-04, 5.0000000000e-05, 1.5000000000e-05
2818, 3.7000000000e-04, 5.0000000000e-05, 1.5000000000e-05
2819, 3.9000000000e-04, 5.0000000000e-05, 1.5000000000e-05
2820, 4.1000000000e-04, 5.0000000000e-05, 1.5000000000e-05
2821, 4.3000000000e-04, 5.0000000000e-05, 1.5000000000e-05
2822, 4.5000000000e-04, 5.0000000000e-05, 1.5000000000e-05
2823, 4.7000000000e-04, 5.0000000000e-05, 1.5000000000e-05
2824, 4.9000000000e-04, 5.0000000000e-05, 1.5000000000e-05
2825, 4.9200000000e-04, 5.0000000000e-05, 1.5000000000e-05
2826, 4.9400000000e-04, 5.0000000000e-05, 1.5000000000e-05
2827, 4.9600000000e-04, 5.0000000000e-05, 1.5000000000e-05
2828, 4.9800000000e-04, 5.0000000000e-05, 1.5000000000e-05
2829, 5.0000000000e-04, 5.0000000000e-05, 1.5000000000e-05
2830, 5.0200000000e-04, 5.0000000000e-05, 1.5000000000e-05
2831, 5.0400000000e-04, 5.0000000000e-05, 1.5000000000e-05
2832, 5.0600000000e-04, 5.0000000000e-05, 1.5000000000e-05
2833, 5.0800000000e-04, 5.0000000000e-05, 1.5000000000e-05
2834, 5.1000000000e-04, 5.0000000000e-05, 1.5000000000e-05
2835, 5.2500000000e-04, 5.0000000000e-05, 1.5000000000e-05
2836, 5.4000000000e-04, 5.0000000000e-05, 1.5000000000e-05
2837, 5.5500000000e-04, 5.0000000000e-05, 1.5000000000e-05
2838, 5.7000000000e-04, 5.0000000000e-05, 1.5000000000e-05
2839, 5.8500000000e-04, 5.0000000000e-05, 1.5000000000e-05
2840, 6.0000000000e-04, 5.0000000000e-05, 1.5000000000e-05
2841, 0.0000000000e+00, 0.0000000000e+00, 1.7500000000e-05
2842, 1.5000000000e-05, 0.0000000000e+00, 1.7500000000e-05
2843, 3.0000000000e-05, 0.0000000000e+00, 1.7500000000e-05
2844, 4.5000000000e-05, 0.0000000000e+00, 1.7500000000e-05
2845, 6.0000000000e-05, 0.0000000000e+00, 1.7500000000e-05
2846, 7.5000000000e-05, 0.0000000000e+00, 1.7500000000e-05
2847, 9.0000000000e-05, 0.0000000000e+00, 1.7500000000e-05
2848, 9.2000000000e-05, 0.0000000000e+00, 1.7500000000e-05
2849, 9.4000000000e-05, 0.0000000000e+00, 1.7500000000e-05
2850, 9.6000000000e-05, 0.0000000000e+00, 1.7500000000e-05
2851, 9.8000000000e-05, 0.0000000000e+00, 1.7500000000e-05
2852, 1.0000000000e-04, 0.0000000000e+00, 1.7500000000e-05
2853, 1.0200000000e-04, 0.0000000000e+00, 1.7500000000e-05
2854, 1.0400000000e-04, 0.0000000000e+00, 1.7500000000e-05
2855, 1.0600000000e-04, 0.0000000000e+00, 1.7500000000e-05
2856, 1.0800000000e-04, 0.0000000000e+00, 1.7500000000e-05
2857, 1.1000000000e-04, 0.0000000000e+00, 1.7500000000e-05
2858, 1.3000000000e-04, 0.0000000000e+00, 1.7500000000e-05
2859, 1.5000000000e-04, 0.0000000000e+00, 1.7500000000e-05
2860, 1.7000000000e-04, 0.0000000000e+00, 1.7500000000e-05
2861, 1.9000000000e-04, 0.0000000000e+00, 1.7500000000e-05
2862, 2.1000000000e-04, 0.0000000000e+00, 1.7500000000e-05
2863, 2.3000000000e-04, 0.0000000000e+00, 1.7500000000e-05
2864, 2.5000000000e-04, 0.0000000000e+00, 1.7500000000e-05
2865, 2.7000000000e-04, 0.0000000000e+00, 1.7500000000e-05
2866, 2.9000000000e-04, 0.0000000000e+00, 1.7500000000e-05
2867, 3.1000000000e-04, 0.0000000000e+00, 1.7500000000e-05
2868, 3.3000000000e-04, 0.0000000000e+00, 1.7500000000e-05
2869, 3.5000000000e-04, 0.0000000000e+00, 1.7500000000e-05
2870, 3.7000000000e-04, 0.0000000000e+00, 1.7500000000e-05
2871, 3.9000000000e-04, 0.0000000000e+00, 1.7500000000e-05
2872, 4.1000000000e-04, 0.0000000000e+00, 1.7500000000e-05
2873, 4.3000000000e-04, 0.0000000000e+00, 1.7500000000e-05
2874, 4.5000000000e-04, 0.0000000000e+00, 1.7500000000e-05
2875, 4.7000000000e-04, 0.0000000000e+00, 1.7500000000e-05
2876, 4.9000000000e-04, 0.0000000000e+00, 1.7500000000e-05
2877, 4.9200000000e-04, 0.0000000000e+00, 1.7500000000e-05
2878, 4.9400000000e-04, 0.0000000000e+00, 1.7500000000e-05
2879, 4.9600000000e-04, 0.0000000000e+00, 1.7500000000e-05
2880, 4.9800000000e-04, 0.0000000000e+00, 1.7500000000e-05
2881, 5.0000000000e-04, 0.0000000000e+00, 1.7500000000e-05
2882, 5.0200000000e-04, 0.0000000000e+00, 1.7500000000e-05
2883, 5.0400000000e-04, 0.0000000000e+00, 1.7500000000e-05
2884, 5.0600000000e-04, 0.0000000000e+00, 1.7500000000e-05
2885, 5.0800000000e-04, 0.0000000000e+00, 1.7500000000e-05
2886, 5.1000000000e-04, 0.0000000000e+00, 1.7500000000e-05
2887, 5.2500000000e-04, 0.0000000000e+00, 1.7500000000e-05
2888, 5.4000000000e-04, 0.0000000000e+00, 1.7500000000e-05
2889, 5.5500000000e-04, 0.0000000000e+00, 1.7500000000e-05
2890, 5.7000000000e-04, 0.0000000000e+00, 1.7500000000e-05
2891, 5.8500000000e-04, 0.0000000000e+00, 1.7500000000e-05
2892, 6.0000000000e-04, 0.0000000000e+00, 1.7500000000e-05
2893, 0.0000000000e+00, 5.0000000000e-05, 1.7500000000e-05
2894, 1.5000000000e-05, 5.0000000000e-05, 1.7500000000e-05
2895, 3.0000000000e-05, 5.0000000000e-05, 1.7500000000e-05
2896, 4.5000000000e-05, 5.0000000000e-05, 1.7500000000e-05
2897, 6.0000000000e-05, 5.0000000000e-05, 1.7500000000e-05
2898, 7.5000000000e-05, 5.0000000000e-05, 1.7500000000e-05
2899, 9.0000000000e-05, 5.0000000000e-05, 1.7500000000e-05
2900, 9.2000000000e-05, 5.0000000000e-05, 1.7500000000e-05
2901, 9.4000000000e-05, 5.0000000000e-05, 1.7500000000e-05
2902, 9.6000000000e-05, 5.0000000000e-05, 1.7500000000e-05
2903, 9.8000000000e-05, 5.0000000000e-05, 1.7500000000e-05
2904, 1.0000000000e-04, 5.0000000000e-05, 1.7500000000e-05
2905, 1.0200000000e-04, 5.0000000000e-05, 1.7500000000e-05
2906, 1.0400000000e-04, 5.0000000000e-05, 1.7500000000e-05
2907, 1.0600000000e-04, 5.0000000000e-05, 1.7500000000e-05
2908, 1.0800000000e-04, 5.0000000000e-05, 1.7500000000e-05
2909, 1.1000000000e-04, 5.0000000000e-05, 1.7500000000e-05
2910, 1.3000000000e-04, 5.0000000000e-05, 1.7500000000e-05
2911, 1.5000000000e-04, 5.0000000000e-05, 1.7500000000e-05
2912, 1.7000000000e-04, 5.0000000000e-05, 1.7500000000e-05
2913, 1.9000000000e-04, 5.0000000000e-05, 1.7500000000e-05
2914, 2.1000000000e-04, 5.0000000000e-05, 1.7500000000e-05
2915, 2.3000000000e-04, 5.0000000000e-05, 1.7500000000e-05
2916, 2.5000000000e-04, 5.0000000000e-05, 1.7500000000e-05
2917, 2.7000000000e-04, 5.0000000000e-05, 1.7500000000e-05
2918, 2.9000000000e-04, 5.0000000000e-05, 1.7500000000e-05
2919, 3.1000000000e-04, 5.0000000000e-05, 1.7500000000e-05
2920, 3.3000000000e-04, 5.0000000000e-05, 1.7500000000e-05
2921, 3.5000000000e-04, 5.0000000000e-05, 1.7500000000e-05
2922, 3.7000000000e-04, 5.0000000000e-05, 1.7500000000e-05
2923, 3.9000000000e-04, 5.0000000000e-05, 1.7500000000e-05
2924, 4.1000000000e-04, 5.0000000000e-05, 1.7500000000e-05
2925, 4.3000000000e-04, 5.0000000000e-05, 1.7500000000e-05
2926, 4.5000000000e-04, 5.0000000000e-05, 1.7500000000e-05
2927, 4.7000000000e-04, 5.0000000000e-05, 1.7500000000e-05
2928, 4.9000000000e-04, 5.0000000000e-05, 1.7500000000e-05
2929, 4.9200000000e-04, 5.0000000000e-05, 1.7500000000e-05
2930, 4.9400000000e-04, 5.0000000000e-05, 1.7500000000e-05
2931, 4.9600000000e-04, 5.0000000000e-05, 1.7500000000e-05
2932, 4.9800000000e-04, 5.0000000000e-05, 1.7500000000e-05
2933, 5.0000000000e-04, 5.0000000000e-05, 1.7500000000e-05
2934, 5.0200000000e-04, 5.0000000000e-05, 1.7500000000e-05
2935, 5.0400000000e-04, 5.0000000000e-05, 1.7500000000e-05
2936, 5.0600000000e-04, 5.0000000000e-05, 1.7500000000e-05
2937, 5.0800000000e-04, 5.0000000000e-05, 1.7500000000e-05
2938, 5.1000000000e-04, 5.0000000000e-05, 1.7500000000e-05
2939, 5.2500000000e-04, 5.0000000000e-05, 1.7500000000e-05
2940, 5.4000000000e-04, 5.0000000000e-05, 1.7500000000e-05
2941, 5.5500000000e-04, 5.0000000000e-05, 1.7500000000e-05
2942, 5.7000000000e-04, 5.0000000000e-05, 1.7500000000e-05
2943, 5.8500000000e-04, 5.0000000000e-05, 1.7500000000e-05
2944, 6.0000000000e-04, 5.0000000000e-05, 1.7500000000e-05
2945, 0.0000000000e+00, 0.0000000000e+00, 2.0000000000e-05
2946, 1.5000000000e-05, 0.0000000000e+00, 2.0000000000e-05
2947, 3.0000000000e-05, 0.0000000000e+00, 2.0000000000e-05
2948, 4.5000000000e-05, 0.0000000000e+00, 2.0000000000e-05
2949, 6.0000000000e-05, 0.0000000000e+00, 2.0000000000e-05
2950, 7.5000000000e-05, 0.0000000000e+00, 2.0000000000e-05
2951, 9.0000000000e-05, 0.0000000000e+00, 2.0000000000e-05
2952, 9.2000000000e-05, 0.0000000000e+00, 2.0000000000e-05
2953, 9.4000000000e-05, 0.0000000000e+00, 2.0000000000e-05
2954, 9.6000000000e-05, 0.0000000000e+00, 2.0000000000e-05
2955, 9.8000000000e-05, 0.0000000000e+00, 2.0000000000e-05
2956, 1.0000000000e-04, 0.0000000000e+00, 2.0000000000e-05
2957, 1.0200000000e-04, 0.0000000000e+00, 2.0000000000e-05
2958, 1.0400000000e-04, 0.0000000000e+00, 2.0000000000e-05
2959, 1.0600000000e-04, 0.0000000000e+00, 2.0000000000e-05
2960, 1.0800000000e-04, 0.0000000000e+00, 2.0000000000e-05
2961, 1.1000000000e-04, 0.0000000000e+00, 2.0000000000e-05
2962, 1.3000000000e-04, 0.0000000000e+00, 2.0000000000e-05
2963, 1.5000000000e-04, 0.0000000000e+00, 2.0000000000e-05
2964, 1.7000000000e-04, 0.0000000000e+00, 2.0000000000e-05
2965, 1.9000000000e-04, 0.0000000000e+00, 2.0000000000e-05
2966, 2.1000000000e-04, 0.0000000000e+00, 2.0000000000e-05
2967, 2.3000000000e-04, 0.0000000000e+00, 2.0000000000e-05
2968, 2.5000000000e-04, 0.0000000000e+00, 2.0000000000e-05
2969, 2.7000000000e-04, 0.0000000000e+00, 2.0000000000e-05
2970, 2.9000000000e-04, 0.0000000000e+00, 2.0000000000e-05
2971, 3.1000000000e-04, 0.0000000000e+00, 2.0000000000e-05
2972, 3.3000000000e-04, 0.0000000000e+00, 2.0000000000e-05
2973, 3.5000000000e-04, 0.0000000000e+00, 2.0000000000e-05
2974, 3.7000000000e-04, 0.0000000000e+00, 2.0000000000e-05
2975, 3.9000000000e-04, 0.0000000000e+00, 2.0000000000e-05
2976, 4.1000000000e-04, 0.0000000000e+00, 2.0000000000e-05
2977, 4.3000000000e-04, 0.0000000000e+00, 2.0000000000e-05
2978, 4.5000000000e-04, 0.0000000000e+00, 2.0000000000e-05
2979, 4.7000000000e-04, 0.0000000000e+00, 2.0000000000e-05
2980, 4.9000000000e-04, 0.0000000000e+00, 2.0000000000e-05
2981, 4.9200000000e-04, 0.0000000000e+00, 2.0000000000e-05
2982, 4.9400000000e-04, 0.0000000000e+00, 2.0000000000e-05
2983, 4.9600000000e-04, 0.0000000000e+00, 2.0000000000e-05
2984, 4.9800000000e-04, 0.0000000000e+00, 2.0000000000e-05
2985, 5.0000000000e-04, 0.0000000000e+00, 2.0000000000e-05
2986, 5.0200000000e-04, 0.0000000000e+00, 2.0000000000e-05
2987, 5.0400000000e-04, 0.0000000000e+00, 2.0000000000e-05
2988, 5.0600000000e-04, 0.0000000000e+00, 2.0000000000e-05
2989, 5.0800000000e-04, 0.0000000000e+00, 2.0000000000e-05
2990, 5.1000000000e-04, 0.0000000000e+00, 2.0000000000e-05
2991, 5.2500000000e-04, 0.0000000000e+00, 2.0000000000e-05
2992, 5.4000000000e-04, 0.0000000000e+00, 2.0000000000e-05
2993, 5.5500000000e-04, 0.0000000000e+00, 2.0000000000e-05
2994, 5.7000000000e-04, 0.0000000000e+00, 2.0000000000e-05
2995, 5.8500000000e-04, 0.0000000000e+00, 2.0000000000e-05
2996, 6.0000000000e-04, 0.0000000000e+00, 2.0000000000e-05
2997, 0.0000000000e+00, 5.0000000000e-05, 2.0000000000e-05
2998, 1.5000000000e-05, 5.0000000000e-05, 2.0000000000e-05
2999, 3.0000000000e-05, 5.0000000000e-05, 2.0000000000e-05
3000, 4.5000000000e-05, 5.0000000000e-05, 2.0000000000e-05
3001, 6.0000000000e-05, 5.0000000000e-05, 2.0000000000e-05
3002, 7.5000000000e-05, 5.0000000000e-05, 2.0000000000e-05
3003, 9.0000000000e-05, 5.0000000000e-05, 2.0000000000e-05
3004, 9.2000000000e-05, 5.0000000000e-05, 2.0000000000e-05
3005, 9.4000000000e-05, 5.0000000000e-05, 2.0000000000e-05
3006, 9.6000000000e-05, 5.0000000000e-05, 2.0000000000e-05
3007, 9.8000000000e-05, 5.0000000000e-05, 2.0000000000e-05
3008, 1.0000000000e-04, 5.0000000000e-05, 2.0000000000e-05
3009, 1.0200000000e-04, 5.0000000000e-05, 2.0000000000e-05
3010, 1.0400000000e-04, 5.0000000000e-05, 2.0000000000e-05
3011, 1.0600000000e-04, 5.0000000000e-05, 2.0000000000e-05
3012, 1.0800000000e-04, 5.0000000000e-05, 2.0000000000e-05
3013, 1.1000000000e-04, 5.0000000000e-05, 2.0000000000e-05
3014, 1.3000000000e-04, 5.0000000000e-05, 2.0000000000e-05
3015, 1.5000000000e-04, 5.0000000000e-05, 2.0000000000e-05
3016, 1.7000000000e-04, 5.0000000000e-05, 2.0000000000e-05
3017, 1.9000000000e-04, 5.0000000000e-05, 2.0000000000e-05
3018, 2.1000000000e-04, 5.0000000000e-05, 2.0000000000e-05
3019, 2.3000000000e-04, 5.0000000000e-05, 2.0000000000e-05
3020, 2.5000000000e-04, 5.0000000000e-05, 2.0000000000e-05
3021, 2.7000000000e-04, 5.0000000000e-05, 2.0000000000e-05
3022, 2.9000000000e-04, 5.0000000000e-05, 2.0000000000e-05
3023, 3.1000000000e-04, 5.0000000000e-05, 2.0000000000e-05
3024, 3.3000000000e-04, 5.0000000000e-05, 2.0000000000e-05
3025, 3.5000000000e-04, 5.0000000000e-05, 2.0000000000e-05
3026, 3.7000000000e-04, 5.0000000000e-05, 2.0000000000e-05
3027, 3.9000000000e-04, 5.0000000000e-05, 2.0000000000e-05
3028, 4.1000000000e-04, 5.0000000000e-05, 2.0000000000e-05
3029, 4.3000000000e-04, 5.0000000000e-05, 2.0000000000e-05
3030, 4.5000000000e-04, 5.0000000000e-05, 2.0000000000e-05
3031, 4.7000000000e-04, 5.0000000000e-05, 2.0000000000e-05
3032, 4.9000000000e-04, 5.0000000000e-05, 2.0000000000e-05
3033, 4.9200000000e-04, 5.0000000000e-05, 2.0000000000e-05
3034, 4.9400000000e-04, 5.0000000000e-05, 2.0000000000e-05
3035, 4.9600000000e-04, 5.0000000000e-05, 2.0000000000e-05
3036, 4.9800000000e-04, 5.0000000000e-05, 2.0000000000e-05
3037, 5.0000000000e-04, 5.0000000000e-05, 2.0000000000e-05
3038, 5.0200000000e-04, 5.0000000000e-05, 2.0000000000e-05
3039, 5.0400000000e-04, 5.0000000000e-05, 2.0000000000e-05
3040, 5.0600000000e-04, 5.0000000000e-05, 2.0000000000e-05
3041, 5.0800000000e-04, 5.0000000000e-05, 2.0000000000e-05
3042, 5.1000000000e-04, 5.0000000000e-05, 2.0000000000e-05
3043, 5.2500000000e-04, 5.0000000000e-05, 2.0000000000e-05
3044, 5.4000000000e-04, 5.0000000000e-05, 2.0000000000e-05
3045, 5.5500000000e-04, 5.0000000000e-05, 2.0000000000e-05
3046, 5.7000000000e-04, 5.0000000000e-05, 2.0000000000e-05
3047, 5.8500000000e-04, 5.0000000000e-05, 2.0000000000e-05
3048, 6.0000000000e-04, 5.0000000000e-05, 2.0000000000e-05
3049, 0.0000000000e+00, 0.0000000000e+00, 2.2500000000e-05
3050, 1.5000000000e-05, 0.0000000000e+00, 2.2500000000e-05
3051, 3.0000000000e-05, 0.0000000000e+00, 2.2500000000e-05
3052, 4.5000000000e-05, 0.0000000000e+00, 2.2500000000e-05
3053, 6.0000000000e-05, 0.0000000000e+00, 2.2500000000e-05
3054, 7.5000000000e-05, 0.0000000000e+00, 2.2500000000e-05
3055, 9.0000000000e-05, 0.0000000000e+00, 2.2500000000e-05
3056, 9.2000000000e-05, 0.0000000000e+00, 2.2500000000e-05
3057, 9.4000000000e-05, 0.0000000000e+00, 2.2500000000e-05
3058, 9.6000000000e-05, 0.0000000000e+00, 2.2500000000e-05
3059, 9.8000000000e-05, 0.0000000000e+00, 2.2500000000e-05
3060, 1.0000000000e-04, 0.0000000000e+00, 2.2500000000e-05
3061, 1.0200000000e-04, 0.0000000000e+00, 2.2500000000e-05
3062, 1.0400000000e-04, 0.0000000000e+00, 2.2500000000e-05
3063, 1.0600000000e-04, 0.0000000000e+00, 2.2500000000e-05
3064, 1.0800000000e-04, 0.0000000000e+00, 2.2500000000e-05
3065, 1.1000000000e-04, 0.0000000000e+00, 2.2500000000e-05
3066, 1.3000000000e-04, 0.0000000000e+00, 2.2500000000e-05
3067, 1.5000000000e-04, 0.0000000000e+00, 2.2500000000e-05
3068, 1.7000000000e-04, 0.0000000000e+00, 2.2500000000e-05
3069, 1.9000000000e-04, 0.0000000000e+00, 2.2500000000e-05
3070, 2.1000000000e-04, 0.0000000000e+00, 2.2500000000e-05
3071, 2.3000000000e-04, 0.0000000000e+00, 2.2500000000e-05
3072, 2.5000000000e-04, 0.0000000000e+00, 2.2500000000e-05
3073, 2.7000000000e-04, 0.0000000000e+00, 2.2500000000e-05
3074, 2.9000000000e-04, 0.0000000000e+00, 2.2500000000e-05
3075, 3.1000000000e-04, 0.0000000000e+00, 2.2500000000e-05
3076, 3.3000000000e-04, 0.0000000000e+00, 2.2500000000e-05
3077, 3.5000000000e-04, 0.0000000000e+00, 2.2500000000e-05
3078, 3.7000000000e-04, 0.0000000000e+00, 2.2500000000e-05
3079, 3.9000000000e-04, 0.0000000000e+00, 2.2500000000e-05
3080, 4.1000000000e-04, 0.0000000000e+00, 2.2500000000e-05
3081, 4.3000000000e-04, 0.0000000000e+00, 2.2500000000e-05
3082, 4.5000000000e-04, 0.0000000000e+00, 2.2500000000e-05
3083, 4.7000000000e-04, 0.0000000000e+00, 2.2500000000e-05
3084, 4.9000000000e-04, 0.0000000000e+00, 2.2500000000e-05
3085, 4.9200000000e-04, 0.0000000000e+00, 2.2500000000e-05
3086, 4.9400000000e-04, 0.0000000000e+00, 2.2500000000e-05
3087, 4.9600000000e-04, 0.0000000000e+00, 2.2500000000e-05
3088, 4.9800000000e-04, 0.0000000000e+00, 2.2500000000e-05
3089, 5.0000000000e-04, 0.0000000000e+00, 2.2500000000e-05
3090, 5.0200000000e-04, 0.0000000000e+00, 2.2500000000e-05
3091, 5.0400000000e-04, 0.0000000000e+00, 2.2500000000e-05
3092, 5.0600000000e-04, 0.0000000000e+00, 2.2500000000e-05
3093, 5.0800000000e-04, 0.0000000000e+00, 2.2500000000e-05
3094, 5.1000000000e-04, 0.0000000000e+00, 2.2500000000e-05
3095, 5.2500000000e-04, 0.0000000000e+00, 2.2500000000e-05
3096, 5.4000000000e-04, 0.0000000000e+00, 2.2500000000e-05
3097, 5.5500000000e-04, 0.0000000000e+00, 2.2500000000e-05
3098, 5.7000000000e-04, 0.0000000000e+00, 2.2500000000e-05
3099, 5.8500000000e-04, 0.0000000000e+00, 2.2500000000e-05
3100, 6.0000000000e-04, 0.0000000000e+00, 2.2500000000e-05
3101, 0.0000000000e+00, 5.0000000000e-05, 2.2500000000e-05
3102, 1.5000000000e-05, 5.0000000000e-05, 2.2500000000e-05
3103, 3.0000000000e-05, 5.0000000000e-05, 2.2500000000e-05
3104, 4.5000000000e-05, 5.0000000000e-05, 2.2500000000e-05
3105, 6.0000000000e-05, 5.0000000000e-05, 2.2500000000e-05
3106, 7.5000000000e-05, 5.0000000000e-05, 2.2500000000e-05
3107, 9.0000000000e-05, 5.0000000000e-05, 2.2500000000e-05
3108, 9.2000000000e-05, 5.0000000000e-05, 2.2500000000e-05
3109, 9.4000000000e-05, 5.0000000000e-05, 2.2500000000e-05
3110, 9.6000000000e-05, 5.0000000000e-05, 2.2500000000e-05
3111, 9.8000000000e-05, 5.0000000000e-05, 2.2500000000e-05
3112, 1.0000000000e-04, 5.0000000000e-05, 2.2500000000e-05
3113, 1.0200000000e-04, 5.0000000000e-05, 2.2500000000e-05
3114, 1.0400000000e-04, 5.0000000000e-05, 2.2500000000e-05
3115, 1.0600000000e-04, 5.0000000000e-05, 2.2500000000e-05
3116, 1.0800000000e-04, 5.0000000000e-05, 2.2500000000e-05
3117, 1.1000000000e-04, 5.0000000000e-05, 2.2500000000e-05
3118, 1.3000000000e-04, 5.0000000000e-05, 2.2500000000e-05
3119, 1.5000000000e-04, 5.0000000000e-05, 2.2500000000e-05
3120, 1.7000000000e-04, 5.0000000000e-05, 2.2500000000e-05
3121, 1.9000000000e-04, 5.0000000000e-05, 2.2500000000e-05
3122, 2.1000000000e-04, 5.0000000000e-05, 2.2500000000e-05
3123, 2.3000000000e-04, 5.0000000000e-05, 2.2500000000e-05
3124, 2.5000000000e-04, 5.0000000000e-05, 2.2500000000e-05
3125, 2.7000000000e-04, 5.0000000000e-05, 2.2500000000e-05
3126, 2.9000000000e-04, 5.0000000000e-05, 2.2500000000e-05
3127, 3.1000000000e-04, 5.0000000000e-05, 2.2500000000e-05
3128, 3.3000000000e-04, 5.0000000000e-05, 2.2500000000e-05
3129, 3.5000000000e-04, 5.0000000000e-05, 2.2500000000e-05
3130, 3.7000000000e-04, 5.0000000000e-05, 2.2500000000e-05
3131, 3.9000000000e-04, 5.0000000000e-05, 2.2500000000e-05
3132, 4.1000000000e-04, 5.0000000000e-05, 2.2500000000e-05
3133, 4.3000000000e-04, 5.0000000000e-05, 2.2500000000e-05
3134, 4.5000000000e-04, 5.0000000000e-05, 2.2500000000e-05
3135, 4.7000000000e-04, 5.0000000000e-05, 2.2500000000e-05
3136, 4.9000000000e-04, 5.0000000000e-05, 2.2500000000e-05
3137, 4.9200000000e-04, 5.0000000000e-05, 2.2500000000e-05
3138, 4.9400000000e-04, 5.0000000000e-05, 2.2500000000e-05
3139, 4.9600000000e-04, 5.0000000000e-05, 2.2500000000e-05
3140, 4.9800000000e-04, 5.0000000000e-05, 2.2500000000e-05
3141, 5.0000000000e-04, 5.0000000000e-05, 2.2500000000e-05
3142, 5.0200000000e-04, 5.0000000000e-05, 2.2500000000e-05
3143, 5.0400000000e-04, 5.0000000000e-05, 2.2500000000e-05
3144, 5.0600000000e-04, 5.0000000000e-05, 2.2500000000e-05
3145, 5.0800000000e-04, 5.0000000000e-05, 2.2500000000e-05
3146, 5.1000000000e-04, 5.0000000000e-05, 2.2500000000e-05
3147, 5.2500000000e-04, 5.0000000000e-05, 2.2500000000e-05
3148, 5.4000000000e-04, 5.0000000000e-05, 2.2500000000e-05
3149, 5.5500000000e-04, 5.0000000000e-05, 2.2500000000e-05
3150, 5.7000000000e-04, 5.0000000000e-05, 2.2500000000e-05
3151, 5.8500000000e-04, 5.0000000000e-05, 2.2500000000e-05
3152, 6.0000000000e-04, 5.0000000000e-05, 2.2500000000e-05
3153, 0.0000000000e+00, 0.0000000000e+00, 2.5000000000e-05
3154, 1.5000000000e-05, 0.0000000000e+00, 2.5000000000e-05
3155, 3.0000000000e-05, 0.0000000000e+00, 2.5000000000e-05
3156, 4.5000000000e-05, 0.0000000000e+00, 2.5000000000e-05
3157, 6.0000000000e-05, 0.0000000000e+00, 2.5000000000e-05
3158, 7.5000000000e-05, 0.0000000000e+00, 2.5000000000e-05
3159, 9.0000000000e-05, 0.0000000000e+00, 2.5000000000e-05
3160, 9.2000000000e-05, 0.0000000000e+00, 2.5000000000e-05
3161, 9.4000000000e-05, 0.0000000000e+00, 2.5000000000e-05
3162, 9.6000000000e-05, 0.0000000000e+00, 2.5000000000e-05
3163, 9.8000000000e-05, 0.0000000000e+00, 2.5000000000e-05
3164, 1.0000000000e-04, 0.0000000000e+00, 2.5000000000e-05
3165, 1.0200000000e-04, 0.0000000000e+00, 2.5000000000e-05
3166, 1.0400000000e-04, 0.0000000000e+00, 2.5000000000e-05
3167, 1.0600000000e-04, 0.0000000000e+00, 2.5000000000e-05
3168, 1.0800000000e-04, 0.0000000000e+00, 2.5000000000e-05
3169, 1.1000000000e-04, 0.0000000000e+00, 2.5000000000e-05
3170, 1.3000000000e-04, 0.0000000000e+00, 2.5000000000e-05
3171, 1.5000000000e-04, 0.0000000000e+00, 2.5000000000e-05
3172, 1.7000000000e-04, 0.0000000000e+00, 2.5000000000e-05
3173, 1.9000000000e-04, 0.0000000000e+00, 2.5000000000e-05
3174, 2.1000000000e-04, 0.0000000000e+00, 2.5000000000e-05
3175, 2.3000000000e-04, 0.0000000000e+00, 2.5000000000e-05
3176, 2.5000000000e-04, 0.0000000000e+00, 2.5000000000e-05
3177, 2.7000000000e-04, 0.0000000000e+00, 2.5000000000e-05
3178, 2.9000000000e-04, 0.0000000000e+00, 2.5000000000e-05
3179, 3.1000000000e-04, 0.0000000000e+00, 2.5000000000e-05
3180, 3.3000000000e-04, 0.0000000000e+00, 2.5000000000e-05
3181, 3.5000000000e-04, 0.0000000000e+00, 2.5000000000e-05
3182, 3.7000000000e-04, 0.0000000000e+00, 2.5000000000e-05
3183, 3.9000000000e-04, 0.0000000000e+00, 2.5000000000e-05
3184, 4.1000000000e-04, 0.0000000000e+00, 2.5000000000e-05
3185, 4.3000000000e-04, 0.0000000000e+00, 2.5000000000e-05
3186, 4.5000000000e-04, 0.0000000000e+00, 2.5000000000e-05
3187, 4.7000000000e-04, 0.0000000000e+00, 2.5000000000e-05
3188, 4.9000000000e-04, 0.0000000000e+00, 2.5000000000e-05
3189, 4.9200000000e-04, 0.0000000000e+00, 2.5000000000e-05
3190, 4.9400000000e-04, 0.0000000000e+00, 2.5000000000e-05
3191, 4.9600000000e-04, 0.0000000000e+00, 2.5000000000e-05
3192, 4.9800000000e-04, 0.0000000000e+00, 2.5000000000e-05
3193, 5.0000000000e-04, 0.0000000000e+00, 2.5000000000e-05
3194, 5.0200000000e-04, 0.0000000000e+00, 2.5000000000e-05
3195, 5.0400000000e-04, 0.0000000000e+00, 2.5000000000e-05
3196, 5.0600000000e-04, 0.0000000000e+00, 2.5000000000e-05
3197, 5.0800000000e-04, 0.0000000000e+00, 2.5000000000e-05
3198, 5.1000000000e-04, 0.0000000000e+00, 2.5000000000e-05
3199, 5.2500000000e-04, 0.0000000000e+00, 2.5000000000e-05
3200, 5.4000000000e-04, 0.0000000000e+00, 2.5000000000e-05
3201, 5.5500000000e-04, 0.0000000000e+00, 2.5000000000e-05
3202, 5.7000000000e-04, 0.0000000000e+00, 2.5000000000e-05
3203, 5.8500000000e-04, 0.0000000000e+00, 2.5000000000e-05
3204, 6.0000000000e-04, 0.0000000000e+00, 2.5000000000e-05
3205, 0.0000000000e+00, 5.0000000000e-05, 2.5000000000e-05
3206, 1.5000000000e-05, 5.0000000000e-05, 2.5000000000e-05
3207, 3.0000000000e-05, 5.0000000000e-05, 2.5000000000e-05
3208, 4.5000000000e-05, 5.0000000000e-05, 2.5000000000e-05
3209, 6.0000000000e-05, 5.0000000000e-05, 2.5000000000e-05
3210, 7.5000000000e-05, 5.0000000000e-05, 2.5000000000e-05
3211, 9.0000000000e-05, 5.0000000000e-05, 2.5000000000e-05
3212, 9.2000000000e-05, 5.0000000000e-05, 2.5000000000e-05
3213, 9.4000000000e-05, 5.0000000000e-05, 2.5000000000e-05
3214, 9.6000000000e-05, 5.0000000000e-05, 2.5000000000e-05
3215, 9.8000000000e-05, 5.0000000000e-05, 2.5000000000e-05
3216, 1.0000000000e-04, 5.0000000000e-05, 2.5000000000e-05
3217, 1.0200000000e-04, 5.0000000000e-05, 2.5000000000e-05
3218, 1.0400000000e-04, 5.0000000000e-05, 2.5000000000e-05
3219, 1.0600000000e-04, 5.0000000000e-05, 2.5000000000e-05
3220, 1.0800000000e-04, 5.0000000000e-05, 2.5000000000e-05
3221, 1.1000000000e-04, 5.0000000000e-05, 2.5000000000e-05
3222, 1.3000000000e-04, 5.0000000000e-05, 2.5000000000e-05
3223, 1.5000000000e-04, 5.0000000000e-05, 2.5000000000e-05
3224, 1.7000000000e-04, 5.0000000000e-05, 2.5000000000e-05
3225, 1.9000000000e-04, 5.0000000000e-05, 2.5000000000e-05
3226, 2.1000000000e-04, 5.0000000000e-05, 2.5000000000e-05
3227, 2.3000000000e-04, 5.0000000000e-05, 2.5000000000e-05
3228, 2.5000000000e-04, 5.0000000000e-05, 2.5000000000e-05
3229, 2.7000000000e-04, 5.0000000000e-05, 2.5000000000e-05
3230, 2.9000000000e-04, 5.0000000000e-05, 2.5000000000e-05
3231, 3.1000000000e-04, 5.0000000000e-05, 2.5000000000e-05
3232, 3.3000000000e-04, 5.0000000000e-05, 2.5000000000e-05
3233, 3.5000000000e-04, 5.0000000000e-05, 2.5000000000e-05
3234, 3.7000000000e-04, 5.0000000000e-05, 2.5000000000e-05
3235, 3.9000000000e-04, 5.0000000000e-05, 2.5000000000e-05
3236, 4.1000000000e-04, 5.0000000000e-05, 2.5000000000e-05
3237, 4.3000000000e-04, 5.0000000000e-05, 2.5000000000e-05
3238, 4.5000000000e-04, 5.0000000000e-05, 2.5000000000e-05
3239, 4.7000000000e-04, 5.0000000000e-05, 2.5000000000e-05
3240, 4.9000000000e-04, 5.0000000000e-05, 2.5000000000e-05
3241, 4.9200000000e-04, 5.0000000000e-05, 2.5000000000e-05
3242, 4.9400000000e-04, 5.0000000000e-05, 2.5000000000e-05
3243, 4.9600000000e-04, 5.0000000000e-05, 2.5000000000e-05
3244, 4.9800000000e-04, 5.0000000000e-05, 2.5000000000e-05
3245, 5.0000000000e-04, 5.0000000000e-05, 2.5000000000e-05
3246, 5.0200000000e-04, 5.0000000000e-05, 2.5000000000e-05
3247, 5.0400000000e-04, 5.0000000000e-05, 2.5000000000e-05
3248, 5.0600000000e-04, 5.0000000000e-05, 2.5000000000e-05
3249, 5.0800000000e-04, 5.0000000000e-05, 2.5000000000e-05
3250, 5.1000000000e-04, 5.0000000000e-05, 2.5000000000e-05
3251, 5.2500000000e-04, 5.0000000000e-05, 2.5000000000e-05
3252, 5.4000000000e-04, 5.0000000000e-05, 2.5000000000e-05
3253, 5.5500000000e-04, 5.0000000000e-05, 2.5000000000e-05
3254, 5.7000000000e-04, 5.0000000000e-05, 2.5000000000e-05
3255, 5.8500000000e-04, 5.0000000000e-05, 2.5000000000e-05
3256, 6.0000000000e-04, 5.0000000000e-05, 2.5000000000e-05
3257, 0.0000000000e+00, 0.0000000000e+00, 2.7500000000e-05
3258, 1.5000000000e-05, 0.0000000000e+00, 2.7500000000e-05
3259, 3.0000000000e-05, 0.0000000000e+00, 2.7500000000e-05
3260, 4.5000000000e-05, 0.0000000000e+00, 2.7500000000e-05
3261, 6.0000000000e-05, 0.0000000000e+00, 2.7500000000e-05
3262, 7.5000000000e-05, 0.0000000000e+00, 2.7500000000e-05
3263, 9.0000000000e-05, 0.0000000000e+00, 2.7500000000e-05
3264, 9.2000000000e-05, 0.0000000000e+00, 2.7500000000e-05
3265, 9.4000000000e-05, 0.0000000000e+00, 2.7500000000e-05
3266, 9.6000000000e-05, 0.0000000000e+00, 2.7500000000e-05
3267, 9.8000000000e-05, 0.0000000000e+00, 2.7500000000e-05
3268, 1.0000000000e-04, 0.0000000000e+00, 2.7500000000e-05
3269, 1.0200000000e-04, 0.0000000000e+00, 2.7500000000e-05
3270, 1.0400000000e-04, 0.0000000000e+00, 2.7500000000e-05
3271, 1.0600000000e-04, 0.0000000000e+00, 2.7500000000e-05
3272, 1.0800000000e-04, 0.0000000000e+00, 2.7500000000e-05
3273, 1.1000000000e-04, 0.0000000000e+00, 2.7500000000e-05
3274, 1.3000000000e-04, 0.0000000000e+00, 2.7500000000e-05
3275, 1.5000000000e-04, 0.0000000000e+00, 2.7500000000e-05
3276, 1.7000000000e-04, 0.0000000000e+00, 2.7500000000e-05
3277, 1.9000000000e-04, 0.0000000000e+00, 2.7500000000e-05
3278, 2.1000000000e-04, 0.0000000000e+00, 2.7500000000e-05
3279, 2.3000000000e-04, 0.0000000000e+00, 2.7500000000e-05
3280, 2.5000000000e-04, 0.0000000000e+00, 2.7500000000e-05
3281, 2.7000000000e-04, 0.0000000000e+00, 2.7500000000e-05
3282, 2.9000000000e-04, 0.0000000000e+00, 2.7500000000e-05
3283, 3.1000000000e-04, 0.0000000000e+00, 2.7500000000e-05
3284, 3.3000000000e-04, 0.0000000000e+00, 2.7500000000e-05
3285, 3.5000000000e-04, 0.0000000000e+00, 2.7500000000e-05
3286, 3.7000000000e-04, 0.0000000000e+00, 2.7500000000e-05
3287, 3.9000000000e-04, 0.0000000000e+00, 2.7500000000e-05
3288, 4.1000000000e-04, 0.0000000000e+00, 2.7500000000e-05
3289, 4.3000000000e-04, 0.0000000000e+00, 2.7500000000e-05
3290, 4.5000000000e-04, 0.0000000000e+00, 2.7500000000e-05
3291, 4.7000000000e-04, 0.0000000000e+00, 2.7500000000e-05
3292, 4.9000000000e-04, 0.0000000000e+00, 2.7500000000e-05
3293, 4.9200000000e-04, 0.0000000000e+00, 2.7500000000e-05
3294, 4.9400000000e-04, 0.0000000000e+00, 2.7500000000e-05
3295, 4.9600000000e-04, 0.0000000000e+00, 2.7500000000e-05
3296, 4.9800000000e-04, 0.0000000000e+00, 2.7500000000e-05
3297, 5.0000000000e-04, 0.0000000000e+00, 2.7500000000e-05
3298, 5.0200000000e-04, 0.0000000000e+00, 2.7500000000e-05
3299, 5.0400000000e-04, 0.0000000000e+00, 2.7500000000e-05
3300, 5.0600000000e-04, 0.0000000000e+00, 2.7500000000e-05
3301, 5.0800000000e-04, 0.0000000000e+00, 2.7500000000e-05
3302, 5.1000000000e-04, 0.0000000000e+00, 2.7500000000e-05
3303, 5.2500000000e-04, 0.0000000000e+00, 2.7500000000e-05
3304, 5.4000000000e-04, 0.0000000000e+00, 2.7500000000e-05
3305, 5.5500000000e-04, 0.0000000000e+00, 2.7500000000e-05
3306, 5.7000000000e-04, 0.0000000000e+00, 2.7500000000e-05
3307, 5.8500000000e-04, 0.0000000000e+00, 2.7500000000e-05
3308, 6.0000000000e-04, 0.0000000000e+00, 2.7500000000e-05
3309, 0.0000000000e+00, 5.0000000000e-05, 2.7500000000e-05
3310, 1.5000000000e-05, 5.0000000000e-05, 2.7500000000e-05
3311, 3.0000000000e-05, 5.0000000000e-05, 2.7500000000e-05
3312, 4.5000000000e-05, 5.0000000000e-05, 2.7500000000e-05
3313, 6.0000000000e-05, 5.0000000000e-05, 2.7500000000e-05
3314, 7.5000000000e-05, 5.0000000000e-05, 2.7500000000e-05
3315, 9.0000000000e-05, 5.0000000000e-05, 2.7500000000e-05
3316, 9.2000000000e-05, 5.0000000000e-05, 2.7500000000e-05
3317, 9.4000000000e-05, 5.0000000000e-05, 2.7500000000e-05
3318, 9.6000000000e-05, 5.0000000000e-05, 2.7500000000e-05
3319, 9.8000000000e-05, 5.0000000000e-05, 2.7500000000e-05
3320, 1.0000000000e-04, 5.0000000000e-05, 2.7500000000e-05
3321, 1.0200000000e-04, 5.0000000000e-05, 2.7500000000e-05
3322, 1.0400000000e-04, 5.0000000000e-05, 2.7500000000e-05
3323, 1.0600000000e-04, 5.0000000000e-05, 2.7500000000e-05
3324, 1.0800000000e-04, 5.0000000000e-05, 2.7500000000e-05
3325, 1.1000000000e-04, 5.0000000000e-05, 2.7500000000e-05
3326, 1.3000000000e-04, 5.0000000000e-05, 2.7500000000e-05
3327, 1.5000000000e-04, 5.0000000000e-05, 2.7500000000e-05
3328, 1.7000000000e-04, 5.0000000000e-05, 2.7500000000e-05
3329, 1.9000000000e-04, 5.0000000000e-05, 2.7500000000e-05
3330, 2.1000000000e-04, 5.0000000000e-05, 2.7500000000e-05
3331, 2.3000000000e-04, 5.0000000000e-05, 2.7500000000e-05
3332, 2.5000000000e-04, 5.0000000000e-05, 2.7500000000e-05
3333, 2.7000000000e-04, 5.0000000000e-05, 2.7500000000e-05
3334, 2.9000000000e-04, 5.0000000000e-05, 2.7500000000e-05
3335, 3.1000000000e-04, 5.0000000000e-05, 2.7500000000e-05
3336, 3.3000000000e-04, 5.0000000000e-05, 2.7500000000e-05
3337, 3.5000000000e-04, 5.0000000000e-05, 2.7500000000e-05
3338, 3.7000000000e-04, 5.0000000000e-05, 2.7500000000e-05
3339, 3.9000000000e-04, 5.0000000000e-05, 2.7500000000e-05
3340, 4.1000000000e-04, 5.0000000000e-05, 2.7500000000e-05
3341, 4.3000000000e-04, 5.0000000000e-05, 2.7500000000e-05
3342, 4.5000000000e-04, 5.0000000000e-05, 2.7500000000e-05
3343, 4.7000000000e-04, 5.0000000000e-05, 2.7500000000e-05
3344, 4.9000000000e-04, 5.0000000000e-05, 2.7500000000e-05
3345, 4.9200000000e-04, 5.0000000000e-05, 2.7500000000e-05
3346, 4.9400000000e-04, 5.0000000000e-05, 2.7500000000e-05
3347, 4.9600000000e-04, 5.0000000000e-05, 2.7500000000e-05
3348, 4.9800000000e-04, 5.0000000000e-05, 2.7500000000e-05
3349, 5.0000000000e-04, 5.0000000000e-05, 2.7500000000e-05
3350, 5.0200000000e-04, 5.0000000000e-05, 2.7500000000e-05
3351, 5.0400000000e-04, 5.0000000000e-05, 2.7500000000e-05
3352, 5.0600000000e-04, 5.0000000000e-05, 2.7500000000e-05
3353, 5.0800000000e-04, 5.0000000000e-05, 2.7500000000e-05
3354, 5.1000000000e-04, 5.0000000000e-05, 2.7500000000e-05
3355, 5.2500000000e-04, 5.0000000000e-05, 2.7500000000e-05
3356, 5.4000000000e-04, 5.0000000000e-05, 2.7500000000e-05
3357, 5.5500000000e-04, 5.0000000000e-05, 2.7500000000e-05
3358, 5.7000000000e-04, 5.0000000000e-05, 2.7500000000e-05
3359, 5.8500000000e-04, 5.0000000000e-05, 2.7500000000e-05
3360, 6.0000000000e-04, 5.0000000000e-05, 2.7500000000e-05
3361, 0.0000000000e+00, 0.0000000000e+00, 3.0000000000e-05
3362, 1.5000000000e-05, 0.0000000000e+00, 3.0000000000e-05
3363, 3.0000000000e-05, 0.0000000000e+00, 3.0000000000e-05
3364, 4.5000000000e-05, 0.0000000000e+00, 3.0000000000e-05
3365, 6.0000000000e-05, 0.0000000000e+00, 3.0000000000e-05
3366, 7.5000000000e-05, 0.0000000000e+00, 3.0000000000e-05
3367, 9.0000000000e-05, 0.0000000000e+00, 3.0000000000e-05
3368, 9.2000000000e-05, 0.0000000000e+00, 3.0000000000e-05
3369, 9.4000000000e-05, 0.0000000000e+00, 3.0000000000e-05
3370, 9.6000000000e-05, 0.0000000000e+00, 3.0000000000e-05
3371, 9.8000000000e-05, 0.0000000000e+00, 3.0000000000e-05
3372, 1.0000000000e-04, 0.0000000000e+00, 3.0000000000e-05
3373, 1.0200000000e-04, 0.0000000000e+00, 3.0000000000e-05
3374, 1.0400000000e-04, 0.0000000000e+00, 3.0000000000e-05
3375, 1.0600000000e-04, 0.0000000000e+00, 3.0000000000e-05
3376, 1.0800000000e-04, 0.0000000000e+00, 3.0000000000e-05
3377, 1.1000000000e-04, 0.0000000000e+00, 3.0000000000e-05
3378, 1.3000000000e-04, 0.0000000000e+00, 3.0000000000e-05
3379, 1.5000000000e-04, 0.0000000000e+00, 3.0000000000e-05
3380, 1.7000000000e-04, 0.0000000000e+00, 3.0000000000e-05
3381, 1.9000000000e-04, 0.0000000000e+00, 3.0000000000e-05
3382, 2.1000000000e-04, 0.0000000000e+00, 3.0000000000e-05
3383, 2.3000000000e-04, 0.0000000000e+00, 3.0000000000e-05
3384, 2.5000000000e-04, 0.0000000000e+00, 3.0000000000e-05
3385, 2.7000000000e-04, 0.0000000000e+00, 3.0000000000e-05
3386, 2.9000000000e-04, 0.0000000000e+00, 3.0000000000e-05
3387, 3.1000000000e-04, 0.0000000000e+00, 3.0000000000e-05
3388, 3.3000000000e-04, 0.0000000000e+00, 3.0000000000e-05
3389, 3.5000000000e-04, 0.0000000000e+00, 3.0000000000e-05
3390, 3.7000000000e-04, 0.0000000000e+00, 3.0000000000e-05
3391, 3.9000000000e-04, 0.0000000000e+00, 3.0000000000e-05
3392, 4.1000000000e-04, 0.0000000000e+00, 3.0000000000e-05
3393, 4.3000000000e-04, 0.0000000000e+00, 3.0000000000e-05
3394, 4.5000000000e-04, 0.0000000000e+00, 3.0000000000e-05
3395, 4.7000000000e-04, 0.0000000000e+00, 3.0000000000e-05
3396, 4.9000000000e-04, 0.0000000000e+00, 3.0000000000e-05
3397, 4.9200000000e-04, 0.0000000000e+00, 3.0000000000e-05
3398, 4.9400000000e-04, 0.0000000000e+00, 3.0000000000e-05
3399, 4.9600000000e-04, 0.0000000000e+00, 3.0000000000e-05
3400, 4.9800000000e-04, 0.0000000000e+00, 3.0000000000e-05
3401, 5.0000000000e-04, 0.0000000000e+00, 3.0000000000e-05
3402, 5.0200000000e-04, 0.0000000000e+00, 3.0000000000e-05
3403, 5.0400000000e-04, 0.0000000000e+00, 3.0000000000e-05
3404, 5.0600000000e-04, 0.0000000000e+00, 3.0000000000e-05
3405, 5.0800000000e-04, 0.0000000000e+00, 3.0000000000e-05
3406, 5.1000000000e-04, 0.0000000000e+00, 3.0000000000e-05
3407, 5.2500000000e-04, 0.0000000000e+00, 3.0000000000e-05
3408, 5.4000000000e-04, 0.0000000000e+00, 3.0000000000e-05
3409, 5.5500000000e-04, 0.0000000000e+00, 3.0000000000e-05
3410, 5.7000000000e-04, 0.0000000000e+00, 3.0000000000e-05
3411, 5.8500000000e-04, 0.0000000000e+00, 3.0000000000e-05
3412, 6.0000000000e-04, 0.0000000000e+00, 3.0000000000e-05
3413, 0.0000000000e+00, 5.0000000000e-05, 3.0000000000e-05
3414, 1.5000000000e-05, 5.0000000000e-05, 3.0000000000e-05
3415, 3.0000000000e-05, 5.0000000000e-05, 3.0000000000e-05
3416, 4.5000000000e-05, 5.0000000000e-05, 3.0000000000e-05
3417, 6.0000000000e-05, 5.0000000000e-05, 3.0000000000e-05
3418, 7.5000000000e-05, 5.0000000000e-05, 3.0000000000e-05
3419, 9.0000000000e-05, 5.0000000000e-05, 3.0000000000e-05
3420, 9.2000000000e-05, 5.0000000000e-05, 3.0000000000e-05
3421, 9.4000000000e-05, 5.0000000000e-05, 3.0000000000e-05
3422, 9.6000000000e-05, 5.0000000000e-05, 3.0000000000e-05
3423, 9.8000000000e-05, 5.0000000000e-05, 3.0000000000e-05
3424, 1.0000000000e-04, 5.0000000000e-05, 3.0000000000e-05
3425, 1.0200000000e-04, 5.0000000000e-05, 3.0000000000e-05
3426, 1.0400000000e-04, 5.0000000000e-05, 3.0000000000e-05
3427, 1.0600000000e-04, 5.0000000000e-05, 3.0000000000e-05
3428, 1.0800000000e-04, 5.0000000000e-05, 3.0000000000e-05
3429, 1.1000000000e-04, 5.0000000000e-05, 3.0000000000e-05
3430, 1.3000000000e-04, 5.0000000000e-05, 3.0000000000e-05
3431, 1.5000000000e-04, 5.0000000000e-05, 3.0000000000e-05
3432, 1.7000000000e-04, 5.0000000000e-05, 3.0000000000e-05
3433, 1.9000000000e-04, 5.0000000000e-05, 3.0000000000e-05
3434, 2.1000000000e-04, 5.0000000000e-05, 3.0000000000e-05
3435, 2.3000000000e-04, 5.0000000000e-05, 3.0000000000e-05
3436, 2.5000000000e-04, 5.0000000000e-05, 3.0000000000e-05
3437, 2.7000000000e-04, 5.0000000000e-05, 3.0000000000e-05
3438, 2.9000000000e-04, 5.0000000000e-05, 3.0000000000e-05
3439, 3.1000000000e-04, 5.0000000000e-05, 3.0000000000e-05
3440, 3.3000000000e-04, 5.0000000000e-05, 3.0000000000e-05
3441, 3.5000000000e-04, 5.0000000000e-05, 3.0000000000e-05
3442, 3.7000000000e-04, 5.0000000000e-05, 3.0000000000e-05
3443, 3.9000000000e-04, 5.0000000000e-05, 3.0000000000e-05
3444, 4.1000000000e-04, 5.0000000000e-05, 3.0000000000e-05
3445, 4.3000000000e-04, 5.0000000000e-05, 3.0000000000e-05
3446, 4.5000000000e-04, 5.0000000000e-05, 3.0000000000e-05
3447, 4.7000000000e-04, 5.0000000000e-05, 3.0000000000e-05
3448, 4.9000000000e-04, 5.0000000000e-05, 3.0000000000e-05
3449, 4.9200000000e-04, 5.0000000000e-05, 3.0000000000e-05
3450, 4.9400000000e-04, 5.0000000000e-05, 3.0000000000e-05
3451, 4.9600000000e-04, 5.0000000000e-05, 3.0000000000e-05
3452, 4.9800000000e-04, 5.0000000000e-05, 3.0000000000e-05
3453, 5.0000000000e-04, 5.0000000000e-05, 3.0000000000e-05
3454, 5.0200000000e-04, 5.0000000000e-05, 3.0000000000e-05
3455, 5.0400000000e-04, 5.0000000000e-05, 3.0000000000e-05
3456, 5.0600000000e-04, 5.0000000000e-05, 3.0000000000e-05
3457, 5.0800000000e-04, 5.0000000000e-05, 3.0000000000e-05
3458, 5.1000000000e-04, 5.0000000000e-05, 3.0000000000e-05
3459, 5.2500000000e-04, 5.0000000000e-05, 3.0000000000e-05
3460, 5.4000000000e-04, 5.0000000000e-05, 3.0000000000e-05
3461, 5.5500000000e-04, 5.0000000000e-05, 3.0000000000e-05
3462, 5.7000000000e-04, 5.0000000000e-05, 3.0000000000e-05
3463, 5.8500000000e-04, 5.0000000000e-05, 3.0000000000e-05
3464, 6.0000000000e-04, 5.0000000000e-05, 3.0000000000e-05
3465, 0.0000000000e+00, 0.0000000000e+00, 4.7000000000e-05
3466, 1.5000000000e-05, 0.0000000000e+00, 4.7000000000e-05
3467, 3.0000000000e-05, 0.0000000000e+00, 4.7000000000e-05
3468, 4.5000000000e-05, 0.0000000000e+00, 4.7000000000e-05
3469, 6.0000000000e-05, 0.0000000000e+00, 4.7000000000e-05
3470, 7.5000000000e-05, 0.0000000000e+00, 4.7000000000e-05
3471, 9.0000000000e-05, 0.0000000000e+00, 4.7000000000e-05
3472, 9.2000000000e-05, 0.0000000000e+00, 4.7000000000e-05
3473, 9.4000000000e-05, 0.0000000000e+00, 4.7000000000e-05
3474, 9.6000000000e-05, 0.0000000000e+00, 4.7000000000e-05
3475, 9.8000000000e-05, 0.0000000000e+00, 4.7000000000e-05
3476, 1.0000000000e-04, 0.0000000000e+00, 4.7000000000e-05
3477, 1.0200000000e-04, 0.0000000000e+00, 4.7000000000e-05
3478, 1.0400000000e-04, 0.0000000000e+00, 4.7000000000e-05
3479, 1.0600000000e-04, 0.0000000000e+00, 4.7000000000e-05
3480, 1.0800000000e-04, 0.0000000000e+00, 4.7000000000e-05
3481, 1.1000000000e-04, 0.0000000000e+00, 4.7000000000e-05
3482, 1.3000000000e-04, 0.0000000000e+00, 4.7000000000e-05
3483, 1.5000000000e-04, 0.0000000000e+00, 4.7000000000e-05
3484, 1.7000000000e-04, 0.0000000000e+00, 4.7000000000e-05
3485, 1.9000000000e-04, 0.0000000000e+00, 4.7000000000e-05
3486, 2.1000000000e-04, 0.0000000000e+00, 4.7000000000e-05
3487, 2.3000000000e-04, 0.0000000000e+00, 4.7000000000e-05
3488, 2.5000000000e-04, 0.0000000000e+00, 4.7000000000e-05
3489, 2.7000000000e-04, 0.0000000000e+00, 4.7000000000e-05
3490, 2.9000000000e-04, 0.0000000000e+00, 4.7000000000e-05
3491, 3.1000000000e-04, 0.0000000000e+00, 4.7000000000e-05
3492, 3.3000000000e-04, 0.0000000000e+00, 4.7000000000e-05
3493, 3.5000000000e-04, 0.0000000000e+00, 4.7000000000e-05
3494, 3.7000000000e-04, 0.0000000000e+00, 4.7000000000e-05
3495, 3.9000000000e-04, 0.0000000000e+00, 4.7000000000e-05
3496, 4.1000000000e-04, 0.0000000000e+00, 4.7000000000e-05
3497, 4.3000000000e-04, 0.0000000000e+00, 4.7000000000e-05
3498, 4.5000000000e-04, 0.0000000000e+00, 4.7000000000e-05
3499, 4.7000000000e-04, 0.0000000000e+00, 4.7000000000e-05
3500, 4.9000000000e-04, 0.0000000000e+00, 4.7000000000e-05
3501, 4.9200000000e-04, 0.0000000000e+00, 4.7000000000e-05
3502, 4.9400000000e-04, 0.0000000000e+00, 4.7000000000e-05
3503, 4.9600000000e-04, 0.0000000000e+00, 4.7000000000e-05
3504, 4.9800000000e-04, 0.0000000000e+00, 4.7000000000e-05
3505, 5.0000000000e-04, 0.0000000000e+00, 4.7000000000e-05
3506, 5.0200000000e-04, 0.0000000000e+00, 4.7000000000e-05
3507, 5.0400000000e-04, 0.0000000000e+00, 4.7000000000e-05
3508, 5.0600000000e-04, 0.0000000000e+00, 4.7000000000e-05
3509, 5.0800000000e-04, 0.0000000000e+00, 4.7000000000e-05
3510, 5.1000000000e-04, 0.0000000000e+00, 4.7000000000e-05
3511, 5.2500000000e-04, 0.0000000000e+00, 4.7000000000e-05
3512, 5.4000000000e-04, 0.0000000000e+00, 4.7000000000e-05
3513, 5.5500000000e-04, 0.0000000000e+00, 4.7000000000e-05
3514, 5.7000000000e-04, 0.0000000000e+00, 4.7000000000e-05
3515, 5.8500000000e-04, 0.0000000000e+00, 4.7000000000e-05
3516, 6.0000000000e-04, 0.0000000000e+00, 4.7000000000e-05
3517, 0.0000000000e+00, 5.0000000000e-05, 4.7000000000e-05
3518, 1.5000000000e-05, 5.0000000000e-05, 4.7000000000e-05
3519, 3.0000000000e-05, 5.0000000000e-05, 4.7000000000e-05
3520, 4.5000000000e-05, 5.0000000000e-05, 4.7000000000e-05
3521, 6.0000000000e-05, 5.0000000000e-05, 4.7000000000e-05
3522, 7.5000000000e-05, 5.0000000000e-05, 4.7000000000e-05
3523, 9.0000000000e-05, 5.0000000000e-05, 4.7000000000e-05
3524, 9.2000000000e-05, 5.0000000000e-05, 4.7000000000e-05
3525, 9.4000000000e-05, 5.0000000000e-05, 4.7000000000e-05
3526, 9.6000000000e-05, 5.0000000000e-05, 4.7000000000e-05
3527, 9.8000000000e-05, 5.0000000000e-05, 4.7000000000e-05
3528, 1.0000000000e-04, 5.0000000000e-05, 4.7000000000e-05
3529, 1.0200000000e-04, 5.0000000000e-05, 4.7000000000e-05
3530, 1.0400000000e-04, 5.0000000000e-05, 4.7000000000e-05
3531, 1.0600000000e-04, 5.0000000000e-05, 4.7000000000e-05
3532, 1.0800000000e-04, 5.0000000000e-05, 4.7000000000e-05
3533, 1.1000000000e-04, 5.0000000000e-05, 4.7000000000e-05
3534, 1.3000000000e-04, 5.0000000000e-05, 4.7000000000e-05
3535, 1.5000000000e-04, 5.0000000000e-05, 4.7000000000e-05
3536, 1.7000000000e-04, 5.0000000000e-05, 4.7000000000e-05
3537, 1.9000000000e-04, 5.0000000000e-05, 4.7000000000e-05
3538, 2.1000000000e-04, 5.0000000000e-05, 4.7000000000e-05
3539, 2.3000000000e-04, 5.0000000000e-05, 4.7000000000e-05
3540, 2.5000000000e-04, 5.0000000000e-05, 4.7000000000e-05
3541, 2.7000000000e-04, 5.0000000000e-05, 4.7000000000e-05
3542, 2.9000000000e-04, 5.0000000000e-05, 4.7000000000e-05
3543, 3.1000000000e-04, 5.0000000000e-05, 4.7000000000e-05
3544, 3.3000000000e-04, 5.0000000000e-05, 4.7000000000e-05
3545, 3.5000000000e-04, 5.0000000000e-05, 4.7000000000e-05
3546, 3.7000000000e-04, 5.0000000000e-05, 4.7000000000e-05
3547, 3.9000000000e-04, 5.0000000000e-05, 4.7000000000e-05
3548, 4.1000000000e-04, 5.0000000000e-05, 4.7000000000e-05
3549, 4.3000000000e-04, 5.0000000000e-05, 4.7000000000e-05
3550, 4.5000000000e-04, 5.0000000000e-05, 4.7000000000e-05
3551, 4.7000000000e-04, 5.0000000000e-05, 4.7000000000e-05
3552, 4.9000000000e-04, 5.0000000000e-05, 4.7000000000e-05
3553, 4.9200000000e-04, 5.0000000000e-05, 4.7000000000e-05
3554, 4.9400000000e-04, 5.0000000000e-05, 4.7000000000e-05
3555, 4.9600000000e-04, 5.0000000000e-05, 4.7000000000e-05
3556, 4.9800000000e-04, 5.0000000000e-05, 4.7000000000e-05
3557, 5.0000000000e-04, 5.0000000000e-05, 4.7000000000e-05
3558, 5.0200000000e-04, 5.0000000000e-05, 4.7000000000e-05
3559, 5.0400000000e-04, 5.0000000000e-05, 4.7000000000e-05
3560, 5.0600000000e-04, 5.0000000000e-05, 4.7000000000e-05
3561, 5.0800000000e-04, 5.0000000000e-05, 4.7000000000e-05
3562, 5.1000000000e-04, 5.0000000000e-05, 4.7000000000e-05
3563, 5.2500000000e-04, 5.0000000000e-05, 4.7000000000e-05
3564, 5.4000000000e-04, 5.0000000000e-05, 4.7000000000e-05
3565, 5.5500000000e-04, 5.0000000000e-05, 4.7000000000e-05
3566, 5.7000000000e-04, 5.0000000000e-05, 4.7000000000e-05
3567, 5.8500000000e-04, 5.0000000000e-05, 4.7000000000e-05
3568, 6.0000000000e-04, 5.0000000000e-05, 4.7000000000e-05
3569, 0.0000000000e+00, 0.0000000000e+00, 6.4000000000e-05
3570, 1.5000000000e-05, 0.0000000000e+00, 6.4000000000e-05
3571, 3.0000000000e-05, 0.0000000000e+00, 6.4000000000e-05
3572, 4.5000000000e-05, 0.0000000000e+00, 6.4000000000e-05
3573, 6.0000000000e-05, 0.0000000000e+00, 6.4000000000e-05
3574, 7.5000000000e-05, 0.0000000000e+00, 6.4000000000e-05
3575, 9.0000000000e-05, 0.0000000000e+00, 6.4000000000e-05
3576, 9.2000000000e-05, 0.0000000000e+00, 6.4000000000e-05
3577, 9.4000000000e-05, 0.0000000000e+00, 6.4000000000e-05
3578, 9.6000000000e-05, 0.0000000000e+00, 6.4000000000e-05
3579, 9.8000000000e-05, 0.0000000000e+00, 6.4000000000e-05
3580, 1.0000000000e-04, 0.0000000000e+00, 6.4000000000e-05
3581, 1.0200000000e-04, 0.0000000000e+00, 6.4000000000e-05
3582, 1.0400000000e-04, 0.0000000000e+00, 6.4000000000e-05
3583, 1.0600000000e-04, 0.0000000000e+00, 6.4000000000e-05
3584, 1.0800000000e-04, 0.0000000000e+00, 6.4000000000e-05
3585, 1.1000000000e-04, 0.0000000000e+00, 6.4000000000e-05
3586, 1.3000000000e-04, 0.0000000000e+00, 6.4000000000e-05
3587, 1.5000000000e-04, 0.0000000000e+00, 6.4000000000e-05
3588, 1.7000000000e-04, 0.0000000000e+00, 6.4000000000e-05
3589, 1.9000000000e-04, 0.0000000000e+00, 6.4000000000e-05
3590, 2.1000000000e-04, 0.0000000000e+00, 6.4000000000e-05
3591, 2.3000000000e-04, 0.0000000000e+00, 6.4000000000e-05
3592, 2.5000000000e-04, 0.0000000000e+00, 6.4000000000e-05
3593, 2.7000000000e-04, 0.0000000000e+00, 6.4000000000e-05
3594, 2.9000000000e-04, 0.0000000000e+00, 6.4000000000e-05
3595, 3.1000000000e-04, 0.0000000000e+00, 6.4000000000e-05
3596, 3.3000000000e-04, 0.0000000000e+00, 6.4000000000e-05
3597, 3.5000000000e-04, 0.0000000000e+00, 6.4000000000e-05
3598, 3.7000000000e-04, 0.0000000000e+00, 6.4000000000e-05
3599, 3.9000000000e-04, 0.0000000000e+00, 6.4000000000e-05
3600, 4.1000000000e-04, 0.0000000000e+00, 6.4000000000e-05
3601, 4.3000000000e-04, 0.0000000000e+00, 6.4000000000e-05
3602, 4.5000000000e-04, 0.0000000000e+00, 6.4000000000e-05
3603, 4.7000000000e-04, 0.0000000000e+00, 6.4000000000e-05
3604, 4.9000000000e-04, 0.0000000000e+00, 6.4000000000e-05
3605, 4.9200000000e-04, 0.0000000000e+00, 6.4000000000e-05
3606, 4.9400000000e-04, 0.0000000000e+00, 6.4000000000e-05
3607, 4.9600000000e-04, 0.0000000000e+00, 6.4000000000e-05
3608, 4.9800000000e-04, 0.0000000000e+00, 6.4000000000e-05
3609, 5.0000000000e-04, 0.0000000000e+00, 6.4000000000e-05
3610, 5.0200000000e-04, 0.0000000000e+00, 6.4000000000e-05
3611, 5.0400000000e-04, 0.0000000000e+00, 6.4000000000e-05
3612, 5.0600000000e-04, 0.0000000000e+00, 6.4000000000e-05
3613, 5.0800000000e-04, 0.0000000000e+00, 6.4000000000e-05
3614, 5.1000000000e-04, 0.0000000000e+00, 6.4000000000e-05
3615, 5.2500000000e-04, 0.0000000000e+00, 6.4000000000e-05
3616, 5.4000000000e-04, 0.0000000000e+00, 6.4000000000e-05
3617, 5.5500000000e-04, 0.0000000000e+00, 6.4000000000e-05
3618, 5.7000000000e-04, 0.0000000000e+00, 6.4000000000e-05
3619, 5.8500000000e-04, 0.0000000000e+00, 6.4000000000e-05
3620, 6.0000000000e-04, 0.0000000000e+00, 6.4000000000e-05
3621, 0.0000000000e+00, 5.0000000000e-05, 6.4000000000e-05
3622, 1.5000000000e-05, 5.0000000000e-05, 6.4000000000e-05
3623, 3.0000000000e-05, 5.0000000000e-05, 6.4000000000e-05
3624, 4.5000000000e-05, 5.0000000000e-05, 6.4000000000e-05
3625, 6.0000000000e-05, 5.0000000000e-05, 6.4000000000e-05
3626, 7.5000000000e-05, 5.0000000000e-05, 6.4000000000e-05
3627, 9.0000000000e-05, 5.0000000000e-05, 6.4000000000e-05
3628, 9.2000000000e-05, 5.0000000000e-05, 6.4000000000e-05
3629, 9.4000000000e-05, 5.0000000000e-05, 6.4000000000e-05
3630, 9.6000000000e-05, 5.0000000000e-05, 6.4000000000e-05
3631, 9.8000000000e-05, 5.0000000000e-05, 6.4000000000e-05
3632, 1.0000000000e-04, 5.0000000000e-05, 6.4000000000e-05
3633, 1.0200000000e-04, 5.0000000000e-05, 6.4000000000e-05
3634, 1.0400000000e-04, 5.0000000000e-05, 6.4000000000e-05
3635, 1.0600000000e-04, 5.0000000000e-05, 6.4000000000e-05
3636, 1.0800000000e-04, 5.0000000000e-05, 6.4000000000e-05
3637, 1.1000000000e-04, 5.0000000000e-05, 6.4000000000e-05
3638, 1.3000000000e-04, 5.0000000000e-05, 6.4000000000e-05
3639, 1.5000000000e-04, 5.0000000000e-05, 6.4000000000e-05
3640, 1.7000000000e-04, 5.0000000000e-05, 6.4000000000e-05
3641, 1.9000000000e-04, 5.0000000000e-05, 6.4000000000e-05
3642, 2.1000000000e-04, 5.0000000000e-05, 6.4000000000e-05
3643, 2.3000000000e-04, 5.0000000000e-05, 6.4000000000e-05
3644, 2.5000000000e-04, 5.0000000000e-05, 6.4000000000e-05
3645, 2.7000000000e-04, 5.0000000000e-05, 6.4000000000e-05
3646, 2.9000000000e-04, 5.0000000000e-05, 6.4000000000e-05
3647, 3.1000000000e-04, 5.0000000000e-05, 6.4000000000e-05
3648, 3.3000000000e-04, 5.0000000000e-05, 6.4000000000e-05
3649, 3.5000000000e-04, 5.0000000000e-05, 6.4000000000e-05
3650, 3.7000000000e-04, 5.0000000000e-05, 6.4000000000e-05
3651, 3.9000000000e-04, 5.0000000000e-05, 6.4000000000e-05
3652, 4.1000000000e-04, 5.0000000000e-05, 6.4000000000e-05
3653, 4.3000000000e-04, 5.0000000000e-05, 6.4000000000e-05
3654, 4.5000000000e-04, 5.0000000000e-05, 6.4000000000e-05
3655, 4.7000000000e-04, 5.0000000000e-05, 6.4000000000e-05
3656, 4.9000000000e-04, 5.0000000000e-05, 6.4000000000e-05
3657, 4.9200000000e-04, 5.0000000000e-05, 6.4000000000e-05
3658, 4.9400000000e-04, 5.0000000000e-05, 6.4000000000e-05
3659, 4.9600000000e-04, 5.0000000000e-05, 6.4000000000e-05
3660, 4.9800000000e-04, 5.0000000000e-05, 6.4000000000e-05
3661, 5.0000000000e-04, 5.0000000000e-05, 6.4000000000e-05
3662, 5.0200000000e-04, 5.0000000000e-05, 6.4000000000e-05
3663, 5.0400000000e-04, 5.0000000000e-05, 6.4000000000e-05
3664, 5.0600000000e-04, 5.0000000000e-05, 6.4000000000e-05
3665, 5.0800000000e-04, 5.0000000000e-05, 6.4000000000e-05
3666, 5.1000000000e-04, 5.0000000000e-05, 6.4000000000e-05
3667, 5.2500000000e-04, 5.0000000000e-05, 6.4000000000e-05
3668, 5.4000000000e-04, 5.0000000000e-05, 6.4000000000e-05
3669, 5.5500000000e-04, 5.0000000000e-05, 6.4000000000e-05
3670, 5.7000000000e-04, 5.0000000000e-05, 6.4000000000e-05
3671, 5.8500000000e-04, 5.0000000000e-05, 6.4000000000e-05
3672, 6.0000000000e-04, 5.0000000000e-05, 6.4000000000e-05
3673, 0.0000000000e+00, 0.0000000000e+00, 8.1000000000e-05
3674, 1.5000000000e-05, 0.0000000000e+00, 8.1000000000e-05
3675, 3.0000000000e-05, 0.0000000000e+00, 8.1000000000e-05
3676, 4.5000000000e-05, 0.0000000000e+00, 8.1000000000e-05
3677, 6.0000000000e-05, 0.0000000000e+00, 8.1000000000e-05
3678, 7.5000000000e-05, 0.0000000000e+00, 8.1000000000e-05
3679, 9.0000000000e-05, 0.0000000000e+00, 8.1000000000e-05
3680, 9.2000000000e-05, 0.0000000000e+00, 8.1000000000e-05
3681, 9.4000000000e-05, 0.0000000000e+00, 8.1000000000e-05
3682, 9.6000000000e-05, 0.0000000000e+00, 8.1000000000e-05
3683, 9.8000000000e-05, 0.0000000000e+00, 8.1000000000e-05
3684, 1.0000000000e-04, 0.0000000000e+00, 8.1000000000e-05
3685, 1.0200000000e-04, 0.0000000000e+00, 8.1000000000e-05
3686, 1.0400000000e-04, 0.0000000000e+00, 8.1000000000e-05
3687, 1.0600000000e-04, 0.0000000000e+00, 8.1000000000e-05
3688, 1.0800000000e-04, 0.0000000000e+00, 8.1000000000e-05
3689, 1.1000000000e-04, 0.0000000000e+00, 8.1000000000e-05
3690, 1.3000000000e-04, 0.0000000000e+00, 8.1000000000e-05
3691, 1.5000000000e-04, 0.0000000000e+00, 8.1000000000e-05
3692, 1.7000000000e-04, 0.0000000000e+00, 8.1000000000e-05
3693, 1.9000000000e-04, 0.0000000000e+00, 8.1000000000e-05
3694, 2.1000000000e-04, 0.0000000000e+00, 8.1000000000e-05
3695, 2.3000000000e-04, 0.0000000000e+00, 8.1000000000e-05
3696, 2.5000000000e-04, 0.0000000000e+00, 8.1000000000e-05
3697, 2.7000000000e-04, 0.0000000000e+00, 8.1000000000e-05
3698, 2.9000000000e-04, 0.0000000000e+00, 8.1000000000e-05
3699, 3.1000000000e-04, 0.0000000000e+00, 8.1000000000e-05
3700, 3.3000000000e-04, 0.0000000000e+00, 8.1000000000e-05
3701, 3.5000000000e-04, 0.0000000000e+00, 8.1000000000e-05
3702, 3.7000000000e-04, 0.0000000000e+00, 8.1000000000e-05
3703, 3.9000000000e-04, 0.0000000000e+00, 8.1000000000e-05
3704, 4.1000000000e-04, 0.0000000000e+00, 8.1000000000e-05
3705, 4.3000000000e-04, 0.0000000000e+00, 8.1000000000e-05
3706, 4.5000000000e-04, 0.0000000000e+00, 8.1000000000e-05
3707, 4.7000000000e-04, 0.0000000000e+00, 8.1000000000e-05
3708, 4.9000000000e-04, 0.0000000000e+00, 8.1000000000e-05
3709, 4.9200000000e-04, 0.0000000000e+00, 8.1000000000e-05
3710, 4.9400000000e-04, 0.0000000000e+00, 8.1000000000e-05
3711, 4.9600000000e-04, 0.0000000000e+00, 8.1000000000e-05
3712, 4.9800000000e-04, 0.0000000000e+00, 8.1000000000e-05
3713, 5.0000000000e-04, 0.0000000000e+00, 8.1000000000e-05
3714, 5.0200000000e-04, 0.0000000000e+00, 8.1000000000e-05
3715, 5.0400000000e-04, 0.0000000000e+00, 8.1000000000e-05
3716, 5.0600000000e-04, 0.0000000000e+00, 8.1000000000e-05
3717, 5.0800000000e-04, 0.0000000000e+00, 8.1000000000e-05
3718, 5.1000000000e-04, 0.0000000000e+00, 8.1000000000e-05
3719, 5.2500000000e-04, 0.0000000000e+00, 8.1000000000e-05
3720, 5.4000000000e-04, 0.0000000000e+00, 8.1000000000e-05
3721, 5.5500000000e-04, 0.0000000000e+00, 8.1000000000e-05
3722, 5.7000000000e-04, 0.0000000000e+00, 8.1000000000e-05
3723, 5.8500000000e-04, 0.0000000000e+00, 8.1000000000e-05
3724, 6.0000000000e-04, 0.0000000000e+00, 8.1000000000e-05
3725, 0.0000000000e+00, 5.0000000000e-05, 8.1000000000e-05
3726, 1.5000000000e-05, 5.0000000000e-05, 8.1000000000e-05
3727, 3.0000000000e-05, 5.0000000000e-05, 8.1000000000e-05
3728, 4.5000000000e-05, 5.0000000000e-05, 8.1000000000e-05
3729, 6.0000000000e-05, 5.0000000000e-05, 8.1000000000e-05
3730, 7.5000000000e-05, 5.0000000000e-05, 8.1000000000e-05
3731, 9.0000000000e-05, 5.0000000000e-05, 8.1000000000e-05
3732, 9.2000000000e-05, 5.0000000000e-05, 8.1000000000e-05
3733, 9.4000000000e-05, 5.0000000000e-05, 8.1000000000e-05
3734, 9.6000000000e-05, 5.0000000000e-05, 8.1000000000e-05
3735, 9.8000000000e-05, 5.0000000000e-05, 8.1000000000e-05
3736, 1.0000000000e-04, 5.0000000000e-05, 8.1000000000e-05
3737, 1.0200000000e-04, 5.0000000000e-05, 8.1000000000e-05
3738, 1.0400000000e-04, 5.0000000000e-05, 8.1000000000e-05
3739, 1.0600000000e-04, 5.0000000000e-05, 8.1000000000e-05
3740, 1.0800000000e-04, 5.0000000000e-05, 8.1000000000e-05
3741, 1.1000000000e-04, 5.0000000000e-05, 8.1000000000e-05
3742, 1.3000000000e-04, 5.0000000000e-05, 8.1000000000e-05
3743, 1.5000000000e-04, 5.0000000000e-05, 8.1000000000e-05
3744, 1.7000000000e-04, 5.0000000000e-05, 8.1000000000e-05
3745, 1.9000000000e-04, 5.0000000000e-05, 8.1000000000e-05
3746, 2.1000000000e-04, 5.0000000000e-05, 8.1000000000e-05
3747, 2.3000000000e-04, 5.0000000000e-05, 8.1000000000e-05
3748, 2.5000000000e-04, 5.0000000000e-05, 8.1000000000e-05
3749, 2.7000000000e-04, 5.0000000000e-05, 8.1000000000e-05
3750, 2.9000000000e-04, 5.0000000000e-05, 8.1000000000e-05
3751, 3.1000000000e-04, 5.0000000000e-05, 8.1000000000e-05
3752, 3.3000000000e-04, 5.0000000000e-05, 8.1000000000e-05
3753, 3.5000000000e-04, 5.0000000000e-05, 8.1000000000e-05
3754, 3.7000000000e-04, 5.0000000000e-05, 8.1000000000e-05
3755, 3.9000000000e-04, 5.0000000000e-05, 8.1000000000e-05
3756, 4.1000000000e-04, 5.0000000000e-05, 8.1000000000e-05
3757, 4.3000000000e-04, 5.0000000000e-05, 8.1000000000e-05
3758, 4.5000000000e-04, 5.0000000000e-05, 8.1000000000e-05
3759, 4.7000000000e-04, 5.0000000000e-05, 8.1000000000e-05
3760, 4.9000000000e-04, 5.0000000000e-05, 8.1000000000e-05
3761, 4.9200000000e-04, 5.0000000000e-05, 8.1000000000e-05
3762, 4.9400000000e-04, 5.0000000000e-05, 8.1000000000e-05
3763, 4.9600000000e-04, 5.0000000000e-05, 8.1000000000e-05
3764, 4.9800000000e-04, 5.0000000000e-05, 8.1000000000e-05
3765, 5.0000000000e-04, 5.0000000000e-05, 8.1000000000e-05
3766, 5.0200000000e-04, 5.0000000000e-05, 8.1000000000e-05
3767, 5.0400000000e-04, 5.0000000000e-05, 8.1000000000e-05
3768, 5.0600000000e-04, 5.0000000000e-05, 8.1000000000e-05
3769, 5.0800000000e-04, 5.0000000000e-05, 8.1000000000e-05
3770, 5.1000000000e-04, 5.0000000000e-05, 8.1000000000e-05
3771, 5.2500000000e-04, 5.0000000000e-05, 8.1000000000e-05
3772, 5.4000000000e-04, 5.0000000000e-05, 8.1000000000e-05
3773, 5.5500000000e-04, 5.0000000000e-05, 8.1000000000e-05
3774, 5.7000000000e-04, 5.0000000000e-05, 8.1000000000e-05
3775, 5.8500000000e-04, 5.0000000000e-05, 8.1000000000e-05
3776, 6.0000000000e-04, 5.0000000000e-05, 8.1000000000e-05
3777, 0.0000000000e+00, 0.0000000000e+00, 9.8000000000e-05
3778, 1.5000000000e-05, 0.0000000000e+00, 9.8000000000e-05
3779, 3.0000000000e-05, 0.0000000000e+00, 9.8000000000e-05
3780, 4.5000000000e-05, 0.0000000000e+00, 9.8000000000e-05
3781, 6.0000000000e-05, 0.0000000000e+00, 9.8000000000e-05
3782, 7.5000000000e-05, 0.0000000000e+00, 9.8000000000e-05
3783, 9.0000000000e-05, 0.0000000000e+00, 9.8000000000e-05
3784, 9.2000000000e-05, 0.0000000000e+00, 9.8000000000e-05
3785, 9.4000000000e-05, 0.0000000000e+00, 9.8000000000e-05
3786, 9.6000000000e-05, 0.0000000000e+00, 9.8000000000e-05
3787, 9.8000000000e-05, 0.0000000000e+00, 9.8000000000e-05
3788, 1.0000000000e-04, 0.0000000000e+00, 9.8000000000e-05
3789, 1.0200000000e-04, 0.0000000000e+00, 9.8000000000e-05
3790, 1.0400000000e-04, 0.0000000000e+00, 9.8000000000e-05
3791, 1.0600000000e-04, 0.0000000000e+00, 9.8000000000e-05
3792, 1.0800000000e-04, 0.0000000000e+00, 9.8000000000e-05
3793, 1.1000000000e-04, 0.0000000000e+00, 9.8000000000e-05
3794, 1.3000000000e-04, 0.0000000000e+00, 9.8000000000e-05
3795, 1.5000000000e-04, 0.0000000000e+00, 9.8000000000e-05
3796, 1.7000000000e-04, 0.0000000000e+00, 9.8000000000e-05
3797, 1.9000000000e-04, 0.0000000000e+00, 9.8000000000e-05
3798, 2.1000000000e-04, 0.0000000000e+00, 9.8000000000e-05
3799, 2.3000000000e-04, 0.0000000000e+00, 9.8000000000e-05
3800, 2.5000000000e-04, 0.0000000000e+00, 9.8000000000e-05
3801, 2.7000000000e-04, 0.0000000000e+00, 9.8000000000e-05
3802, 2.9000000000e-04, 0.0000000000e+00, 9.8000000000e-05
3803, 3.1000000000e-04, 0.0000000000e+00, 9.8000000000e-05
3804, 3.3000000000e-04, 0.0000000000e+00, 9.8000000000e-05
3805, 3.5000000000e-04, 0.0000000000e+00, 9.8000000000e-05
3806, 3.7000000000e-04, 0.0000000000e+00, 9.8000000000e-05
3807, 3.9000000000e-04, 0.0000000000e+00, 9.8000000000e-05
3808, 4.1000000000e-04, 0.0000000000e+00, 9.8000000000e-05
3809, 4.3000000000e-04, 0.0000000000e+00, 9.8000000000e-05
3810, 4.5000000000e-04, 0.0000000000e+00, 9.8000000000e-05
3811, 4.7000000000e-04, 0.0000000000e+00, 9.8000000000e-05
3812, 4.9000000000e-04, 0.0000000000e+00, 9.8000000000e-05
3813, 4.9200000000e-04, 0.0000000000e+00, 9.8000000000e-05
3814, 4.9400000000e-04, 0.0000000000e+00, 9.8000000000e-05
3815, 4.9600000000e-04, 0.0000000000e+00, 9.8000000000e-05
3816, 4.9800000000e-04, 0.0000000000e+00, 9.8000000000e-05
3817, 5.0000000000e-04, 0.0000000000e+00, 9.8000000000e-05
3818, 5.0200000000e-04, 0.0000000000e+00, 9.8000000000e-05
3819, 5.0400000000e-04, 0.0000000000e+00, 9.8000000000e-05
3820, 5.0600000000e-04, 0.0000000000e+00, 9.8000000000e-05
3821, 5.0800000000e-04, 0.0000000000e+00, 9.8000000000e-05
3822, 5.1000000000e-04, 0.0000000000e+00, 9.8000000000e-05
3823, 5.2500000000e-04, 0.0000000000e+00, 9.8000000000e-05
3824, 5.4000000000e-04, 0.0000000000e+00, 9.8000000000e-05
3825, 5.5500000000e-04, 0.0000000000e+00, 9.8000000000e-05
3826, 5.7000000000e-04, 0.0000000000e+00, 9.8000000000e-05
3827, 5.8500000000e-04, 0.0000000000e+00, 9.8000000000e-05
3828, 6.0000000000e-04, 0.0000000000e+00, 9.8000000000e-05
3829, 0.0000000000e+00, 5.0000000000e-05, 9.8000000000e-05
3830, 1.5000000000e-05, 5.0000000000e-05, 9.8000000000e-05
3831, 3.0000000000e-05, 5.0000000000e-05, 9.8000000000e-05
3832, 4.5000000000e-05, 5.0000000000e-05, 9.8000000000e-05
3833, 6.0000000000e-05, 5.0000000000e-05, 9.8000000000e-05
3834, 7.5000000000e-05, 5.0000000000e-05, 9.8000000000e-05
3835, 9.0000000000e-05, 5.0000000000e-05, 9.8000000000e-05
3836, 9.2000000000e-05, 5.0000000000e-05, 9.8000000000e-05
3837, 9.4000000000e-05, 5.0000000000e-05, 9.8000000000e-05
3838, 9.6000000000e-05, 5.0000000000e-05, 9.8000000000e-05
3839, 9.8000000000e-05, 5.0000000000e-05, 9.8000000000e-05
3840, 1.0000000000e-04, 5.0000000000e-05, 9.8000000000e-05
3841, 1.0200000000e-04, 5.0000000000e-05, 9.8000000000e-05
3842, 1.0400000000e-04, 5.0000000000e-05, 9.8000000000e-05
3843, 1.0600000000e-04, 5.0000000000e-05, 9.8000000000e-05
3844, 1.0800000000e-04, 5.0000000000e-05, 9.8000000000e-05
3845, 1.1000000000e-04, 5.0000000000e-05, 9.8000000000e-05
3846, 1.3000000000e-04, 5.0000000000e-05, 9.8000000000e-05
3847, 1.5000000000e-04, 5.0000000000e-05, 9.8000000000e-05
3848, 1.7000000000e-04, 5.0000000000e-05, 9.8000000000e-05
3849, 1.9000000000e-04, 5.0000000000e-05, 9.8000000000e-05
3850, 2.1000000000e-04, 5.0000000000e-05, 9.8000000000e-05
3851, 2.3000000000e-04, 5.0000000000e-05, 9.8000000000e-05
3852, 2.5000000000e-04, 5.0000000000e-05, 9.8000000000e-05
3853, 2.7000000000e-04, 5.0000000000e-05, 9.8000000000e-05
3854, 2.9000000000e-04, 5.0000000000e-05, 9.8000000000e-05
3855, 3.1000000000e-04, 5.0000000000e-05, 9.8000000000e-05
3856, 3.3000000000e-04, 5.0000000000e-05, 9.8000000000e-05
3857, 3.5000000000e-04, 5.0000000000e-05, 9.8000000000e-05
3858, 3.7000000000e-04, 5.0000000000e-05, 9.8000000000e-05
3859, 3.9000000000e-04, 5.0000000000e-05, 9.8000000000e-05
3860, 4.1000000000e-04, 5.0000000000e-05, 9.8000000000e-05
3861, 4.3000000000e-04, 5.0000000000e-05, 9.8000000000e-05
3862, 4.5000000000e-04, 5.0000000000e-05, 9.8000000000e-05
3863, 4.7000000000e-04, 5.0000000000e-05, 9.8000000000e-05
3864, 4.9000000000e-04, 5.0000000000e-05, 9.8000000000e-05
3865, 4.9200000000e-04, 5.0000000000e-05, 9.8000000000e-05
3866, 4.9400000000e-04, 5.0000000000e-05, 9.8000000000e-05
3867, 4.9600000000e-04, 5.0000000000e-05, 9.8000000000e-05
3868, 4.9800000000e-04, 5.0000000000e-05, 9.8000000000e-05
3869, 5.0000000000e-04, 5.0000000000e-05, 9.8000000000e-05
3870, 5.0200000000e-04, 5.0000000000e-05, 9.8000000000e-05
3871, 5.0400000000e-04, 5.0000000000e-05, 9.8000000000e-05
3872, 5.0600000000e-04, 5.0000000000e-05, 9.8000000000e-05
3873, 5.0800000000e-04, 5.0000000000e-05, 9.8000000000e-05
3874, 5.1000000000e-04, 5.0000000000e-05, 9.8000000000e-05
3875, 5.2500000000e-04, 5.0000000000e-05, 9.8000000000e-05
3876, 5.4000000000e-04, 5.0000000000e-05, 9.8000000000e-05
3877, 5.5500000000e-04, 5.0000000000e-05, 9.8000000000e-05
3878, 5.7000000000e-04, 5.0000000000e-05, 9.8000000000e-05
3879, 5.8500000000e-04, 5.0000000000e-05, 9.8000000000e-05
3880, 6.0000000000e-04, 5.0000000000e-05, 9.8000000000e-05
3881, 0.0000000000e+00, 0.0000000000e+00, 1.1500000000e-04
3882, 1.5000000000e-05, 0.0000000000e+00, 1.1500000000e-04
3883, 3.0000000000e-05, 0.0000000000e+00, 1.1500000000e-04
3884, 4.5000000000e-05, 0.0000000000e+00, 1.1500000000e-04
3885, 6.0000000000e-05, 0.0000000000e+00, 1.1500000000e-04
3886, 7.5000000000e-05, 0.0000000000e+00, 1.1500000000e-04
3887, 9.0000000000e-05, 0.0000000000e+00, 1.1500000000e-04
3888, 9.2000000000e-05, 0.0000000000e+00, 1.1500000000e-04
3889, 9.4000000000e-05, 0.0000000000e+00, 1.1500000000e-04
3890, 9.6000000000e-05, 0.0000000000e+00, 1.1500000000e-04
3891, 9.8000000000e-05, 0.0000000000e+00, 1.1500000000e-04
3892, 1.0000000000e-04, 0.0000000000e+00, 1.1500000000e-04
3893, 1.0200000000e-04, 0.0000000000e+00, 1.1500000000e-04
3894, 1.0400000000e-04, 0.0000000000e+00, 1.1500000000e-04
3895, 1.0600000000e-04, 0.0000000000e+00, 1.1500000000e-04
3896, 1.0800000000e-04, 0.0000000000e+00, 1.1500000000e-04
3897, 1.1000000000e-04, 0.0000000000e+00, 1.1500000000e-04
3898, 1.3000000000e-04, 0.0000000000e+00, 1.1500000000e-04
3899, 1.5000000000e-04, 0.0000000000e+00, 1.1500000000e-04
3900, 1.7000000000e-04, 0.0000000000e+00, 1.1500000000e-04
3901, 1.9000000000e-04, 0.0000000000e+00, 1.1500000000e-04
3902, 2.1000000000e-04, 0.0000000000e+00, 1.1500000000e-04
3903, 2.3000000000e-04, 0.0000000000e+00, 1.1500000000e-04
3904, 2.5000000000e-04, 0.0000000000e+00, 1.1500000000e-04
3905, 2.7000000000e-04, 0.0000000000e+00, 1.1500000000e-04
3906, 2.9000000000e-04, 0.0000000000e+00, 1.1500000000e-04
3907, 3.1000000000e-04, 0.0000000000e+00, 1.1500000000e-04
3908, 3.3000000000e-04, 0.0000000000e+00, 1.1500000000e-04
3909, 3.5000000000e-04, 0.0000000000e+00, 1.1500000000e-04
3910, 3.7000000000e-04, 0.0000000000e+00, 1.1500000000e-04
3911, 3.9000000000e-04, 0.0000000000e+00, 1.1500000000e-04
3912, 4.1000000000e-04, 0.0000000000e+00, 1.1500000000e-04
3913, 4.3000000000e-04, 0.0000000000e+00, 1.1500000000e-04
3914, 4.5000000000e-04, 0.0000000000e+00, 1.1500000000e-04
3915, 4.7000000000e-04, 0.0000000000e+00, 1.1500000000e-04
3916, 4.9000000000e-04, 0.0000000000e+00, 1.1500000000e-04
3917, 4.9200000000e-04, 0.0000000000e+00, 1.1500000000e-04
3918, 4.9400000000e-04, 0.0000000000e+00, 1.1500000000e-04
3919, 4.9600000000e-04, 0.0000000000e+00, 1.1500000000e-04
3920, 4.9800000000e-04, 0.0000000000e+00, 1.1500000000e-04
3921, 5.0000000000e-04, 0.0000000000e+00, 1.1500000000e-04
3922, 5.0200000000e-04, 0.0000000000e+00, 1.1500000000e-04
3923, 5.0400000000e-04, 0.0000000000e+00, 1.1500000000e-04
3924, 5.0600000000e-04, 0.0000000000e+00, 1.1500000000e-04
3925, 5.0800000000e-04, 0.0000000000e+00, 1.1500000000e-04
3926, 5.1000000000e-04, 0.0000000000e+00, 1.1500000000e-04
3927, 5.2500000000e-04, 0.0000000000e+00, 1.1500000000e-04
3928, 5.4000000000e-04, 0.0000000000e+00, 1.1500000000e-04
3929, 5.5500000000e-04, 0.0000000000e+00, 1.1500000000e-04
3930, 5.7000000000e-04, 0.0000000000e+00, 1.1500000000e-04
3931, 5.8500000000e-04, 0.0000000000e+00, 1.1500000000e-04
3932, 6.0000000000e-04, 0.0000000000e+00, 1.1500000000e-04
3933, 0.0000000000e+00, 5.0000000000e-05, 1.1500000000e-04
3934, 1.5000000000e-05, 5.0000000000e-05, 1.1500000000e-04
3935, 3.0000000000e-05, 5.0000000000e-05, 1.1500000000e-04
3936, 4.5000000000e-05, 5.0000000000e-05, 1.1500000000e-04
3937, 6.0000000000e-05, 5.0000000000e-05, 1.1500000000e-04
3938, 7.5000000000e-05, 5.0000000000e-05, 1.1500000000e-04
3939, 9.0000000000e-05, 5.0000000000e-05, 1.1500000000e-04
3940, 9.2000000000e-05, 5.0000000000e-05, 1.1500000000e-04
3941, 9.4000000000e-05, 5.0000000000e-05, 1.1500000000e-04
3942, 9.6000000000e-05, 5.0000000000e-05, 1.1500000000e-04
3943, 9.8000000000e-05, 5.0000000000e-05, 1.1500000000e-04
3944, 1.0000000000e-04, 5.0000000000e-05, 1.1500000000e-04
3945, 1.0200000000e-04, 5.0000000000e-05, 1.1500000000e-04
3946, 1.0400000000e-04, 5.0000000000e-05, 1.1500000000e-04
3947, 1.0600000000e-04, 5.0000000000e-05, 1.1500000000e-04
3948, 1.0800000000e-04, 5.0000000000e-05, 1.1500000000e-04
3949, 1.1000000000e-04, 5.0000000000e-05, 1.1500000000e-04
3950, 1.3000000000e-04, 5.0000000000e-05, 1.1500000000e-04
3951, 1.5000000000e-04, 5.0000000000e-05, 1.1500000000e-04
3952, 1.7000000000e-04, 5.0000000000e-05, 1.1500000000e-04
3953, 1.9000000000e-04, 5.0000000000e-05, 1.1500000000e-04
3954, 2.1000000000e-04, 5.0000000000e-05, 1.1500000000e-04
3955, 2.3000000000e-04, 5.0000000000e-05, 1.1500000000e-04
3956, 2.5000000000e-04, 5.0000000000e-05, 1.1500000000e-04
3957, 2.7000000000e-04, 5.0000000000e-05, 1.1500000000e-04
3958, 2.9000000000e-04, 5.0000000000e-05, 1.1500000000e-04
3959, 3.1000000000e-04, 5.0000000000e-05, 1.1500000000e-04
3960, 3.3000000000e-04, 5.0000000000e-05, 1.1500000000e-04
3961, 3.5000000000e-04, 5.0000000000e-05, 1.1500000000e-04
3962, 3.7000000000e-04, 5.0000000000e-05, 1.1500000000e-04
3963, 3.9000000000e-04, 5.0000000000e-05, 1.1500000000e-04
3964, 4.1000000000e-04, 5.0000000000e-05, 1.1500000000e-04
3965, 4.3000000000e-04, 5.0000000000e-05, 1.1500000000e-04
3966, 4.5000000000e-04, 5.0000000000e-05, 1.1500000000e-04
3967, 4.7000000000e-04, 5.0000000000e-05, 1.1500000000e-04
3968, 4.9000000000e-04, 5.0000000000e-05, 1.1500000000e-04
3969, 4.9200000000e-04, 5.0000000000e-05, 1.1500000000e-04
3970, 4.9400000000e-04, 5.0000000000e-05, 1.1500000000e-04
3971, 4.9600000000e-04, 5.0000000000e-05, 1.1500000000e-04
3972, 4.9800000000e-04, 5.0000000000e-05, 1.1500000000e-04
3973, 5.0000000000e-04, 5.0000000000e-05, 1.1500000000e-04
3974, 5.0200000000e-04, 5.0000000000e-05, 1.1500000000e-04
3975, 5.0400000000e-04, 5.0000000000e-05, 1.1500000000e-04
3976, 5.0600000000e-04, 5.0000000000e-05, 1.1500000000e-04
3977, 5.0800000000e-04, 5.0000000000e-05, 1.1500000000e-04
3978, 5.1000000000e-04, 5.0000000000e-05, 1.1500000000e-04
3979, 5.2500000000e-04, 5.0000000000e-05, 1.1500000000e-04
3980, 5.4000000000e-04, 5.0000000000e-05, 1.1500000000e-04
3981, 5.5500000000e-04, 5.0000000000e-05, 1.1500000000e-04
3982, 5.7000000000e-04, 5.0000000000e-05, 1.1500000000e-04
3983, 5.8500000000e-04, 5.0000000000e-05, 1.1500000000e-04
3984, 6.0000000000e-04, 5.0000000000e-05, 1.1500000000e-04
3985, 0.0000000000e+00, 0.0000000000e+00, 1.3200000000e-04
3986, 1.5000000000e-05, 0.0000000000e+00, 1.3200000000e-04
3987, 3.0000000000e-05, 0.0000000000e+00, 1.3200000000e-04
3988, 4.5000000000e-05, 0.0000000000e+00, 1.3200000000e-04
3989, 6.0000000000e-05, 0.0000000000e+00, 1.3200000000e-04
3990, 7.5000000000e-05, 0.0000000000e+00, 1.3200000000e-04
3991, 9.0000000000e-05, 0.0000000000e+00, 1.3200000000e-04
3992, 9.2000000000e-05, 0.0000000000e+00, 1.3200000000e-04
3993, 9.4000000000e-05, 0.0000000000e+00, 1.3200000000e-04
3994, 9.6000000000e-05, 0.0000000000e+00, 1.3200000000e-04
3995, 9.8000000000e-05, 0.0000000000e+00, 1.3200000000e-04
3996, 1.0000000000e-04, 0.0000000000e+00, 1.3200000000e-04
3997, 1.0200000000e-04, 0.0000000000e+00, 1.3200000000e-04
3998, 1.0400000000e-04, 0.0000000000e+00, 1.3200000000e-04
3999, 1.0600000000e-04, 0.0000000000e+00, 1.3200000000e-04
4000, 1.0800000000e-04, 0.0000000000e+00, 1.3200000000e-04
4001, 1.1000000000e-04, 0.0000000000e+00, 1.3200000000e-04
4002, 1.3000000000e-04, 0.0000000000e+00, 1.3200000000e-04
4003, 1.5000000000e-04, 0.0000000000e+00, 1.3200000000e-04
4004, 1.7000000000e-04, 0.0000000000e+00, 1.3200000000e-04
4005, 1.9000000000e-04, 0.0000000000e+00, 1.3200000000e-04
4006, 2.1000000000e-04, 0.0000000000e+00, 1.3200000000e-04
4007, 2.3000000000e-04, 0.0000000000e+00, 1.3200000000e-04
4008, 2.5000000000e-04, 0.0000000000e+00, 1.3200000000e-04
4009, 2.7000000000e-04, 0.0000000000e+00, 1.3200000000e-04
4010, 2.9000000000e-04, 0.0000000000e+00, 1.3200000000e-04
4011, 3.1000000000e-04, 0.0000000000e+00, 1.3200000000e-04
4012, 3.3000000000e-04, 0.0000000000e+00, 1.3200000000e-04
4013, 3.5000000000e-04, 0.0000000000e+00, 1.3200000000e-04
4014, 3.7000000000e-04, 0.0000000000e+00, 1.3200000000e-04
4015, 3.9000000000e-04, 0.0000000000e+00, 1.3200000000e-04
4016, 4.1000000000e-04, 0.0000000000e+00, 1.3200000000e-04
4017, 4.3000000000e-04, 0.0000000000e+00, 1.3200000000e-04
4018, 4.5000000000e-04, 0.0000000000e+00, 1.3200000000e-04
4019, 4.7000000000e-04, 0.0000000000e+00, 1.3200000000e-04
4020, 4.9000000000e-04, 0.0000000000e+00, 1.3200000000e-04
4021, 4.9200000000e-04, 0.0000000000e+00, 1.3200000000e-04
4022, 4.9400000000e-04, 0.0000000000e+00, 1.3200000000e-04
4023, 4.9600000000e-04, 0.0000000000e+00, 1.3200000000e-04
4024, 4.9800000000e-04, 0.0000000000e+00, 1.3200000000e-04
4025, 5.0000000000e-04, 0.0000000000e+00, 1.3200000000e-04
4026, 5.0200000000e-04, 0.0000000000e+00, 1.3200000000e-04
4027, 5.0400000000e-04, 0.0000000000e+00, 1.3200000000e-04
4028, 5.0600000000e-04, 0.0000000000e+00, 1.3200000000e-04
4029, 5.0800000000e-04, 0.0000000000e+00, 1.3200000000e-04
4030, 5.1000000000e-04, 0.0000000000e+00, 1.3200000000e-04
4031, 5.2500000000e-04, 0.0000000000e+00, 1.3200000000e-04
4032, 5.4000000000e-04, 0.0000000000e+00, 1.3200000000e-04
4033, 5.5500000000e-04, 0.0000000000e+00, 1.3200000000e-04
4034, 5.7000000000e-04, 0.0000000000e+00, 1.3200000000e-04
4035, 5.8500000000e-04, 0.0000000000e+00, 1.3200000000e-04
4036, 6.0000000000e-04, 0.0000000000e+00, 1.3200000000e-04
4037, 0.0000000000e+00, 5.0000000000e-05, 1.3200000000e-04
4038, 1.5000000000e-05, 5.0000000000e-05, 1.3200000000e-04
4039, 3.0000000000e-05, 5.0000000000e-05, 1.3200000000e-04
4040, 4.5000000000e-05, 5.0000000000e-05, 1.3200000000e-04
4041, 6.0000000000e-05, 5.0000000000e-05, 1.3200000000e-04
4042, 7.5000000000e-05, 5.0000000000e-05, 1.3200000000e-04
4043, 9.0000000000e-05, 5.0000000000e-05, 1.3200000000e-04
4044, 9.2000000000e-05, 5.0000000000e-05, 1.3200000000e-04
4045, 9.4000000000e-05, 5.0000000000e-05, 1.3200000000e-04
4046, 9.6000000000e-05, 5.0000000000e-05, 1.3200000000e-04
4047, 9.8000000000e-05, 5.0000000000e-05, 1.3200000000e-04
4048, 1.0000000000e-04, 5.0000000000e-05, 1.3200000000e-04
4049, 1.0200000000e-04, 5.0000000000e-05, 1.3200000000e-04
4050, 1.0400000000e-04, 5.0000000000e-05, 1.3200000000e-04
4051, 1.0600000000e-04, 5.0000000000e-05, 1.3200000000e-04
4052, 1.0800000000e-04, 5.0000000000e-05, 1.3200000000e-04
4053, 1.1000000000e-04, 5.0000000000e-05, 1.3200000000e-04
4054, 1.3000000000e-04, 5.0000000000e-05, 1.3200000000e-04
4055, 1.5000000000e-04, 5.0000000000e-05, 1.3200000000e-04
4056, 1.7000000000e-04, 5.0000000000e-05, 1.3200000000e-04
4057, 1.9000000000e-04, 5.0000000000e-05, 1.3200000000e-04
4058, 2.1000000000e-04, 5.0000000000e-05, 1.3200000000e-04
4059, 2.3000000000e-04, 5.0000000000e-05, 1.3200000000e-04
4060, 2.5000000000e-04, 5.0000000000e-05, 1.3200000000e-04
4061, 2.7000000000e-04, 5.0000000000e-05, 1.3200000000e-04
4062, 2.9000000000e-04, 5.0000000000e-05, 1.3200000000e-04
4063, 3.1000000000e-04, 5.0000000000e-05, 1.3200000000e-04
4064, 3.3000000000e-04, 5.0000000000e-05, 1.3200000000e-04
4065, 3.5000000000e-04, 5.0000000000e-05, 1.3200000000e-04
4066, 3.7000000000e-04, 5.0000000000e-05, 1.3200000000e-04
4067, 3.9000000000e-04, 5.0000000000e-05, 1.3200000000e-04
4068, 4.1000000000e-04, 5.0000000000e-05, 1.3200000000e-04
4069, 4.3000000000e-04, 5.0000000000e-05, 1.3200000000e-04
4070, 4.5000000000e-04, 5.0000000000e-05, 1.3200000000e-04
4071, 4.7000000000e-04, 5.0000000000e-05, 1.3200000000e-04
4072, 4.9000000000e-04, 5.0000000000e-05, 1.3200000000e-04
4073, 4.9200000000e-04, 5.0000000000e-05, 1.3200000000e-04
4074, 4.9400000000e-04, 5.0000000000e-05, 1.3200000000e-04
4075, 4.9600000000e-04, 5.0000000000e-05, 1.3200000000e-04
4076, 4.9800000000e-04, 5.0000000000e-05, 1.3200000000e-04
4077, 5.0000000000e-04, 5.0000000000e-05, 1.3200000000e-04
4078, 5.0200000000e-04, 5.0000000000e-05, 1.3200000000e-04
4079, 5.0400000000e-04, 5.0000000000e-05, 1.3200000000e-04
4080, 5.0600000000e-04, 5.0000000000e-05, 1.3200000000e-04
4081, 5.0800000000e-04, 5.0000000000e-05, 1.3200000000e-04
4082, 5.1000000000e-04, 5.0000000000e-05, 1.3200000000e-04
4083, 5.2500000000e-04, 5.0000000000e-05, 1.3200000000e-04
4084, 5.4000000000e-04, 5.0000000000e-05, 1.3200000000e-04
4085, 5.5500000000e-04, 5.0000000000e-05, 1.3200000000e-04
4086, 5.7000000000e-04, 5.0000000000e-05, 1.3200000000e-04
4087, 5.8500000000e-04, 5.0000000000e-05, 1.3200000000e-04
4088, 6.0000000000e-04, 5.0000000000e-05, 1.3200000000e-04
4089, 0.0000000000e+00, 0.0000000000e+00, 1.4900000000e-04
4090, 1.5000000000e-05, 0.0000000000e+00, 1.4900000000e-04
4091, 3.0000000000e-05, 0.0000000000e+00, 1.4900000000e-04
4092, 4.5000000000e-05, 0.0000000000e+00, 1.4900000000e-04
4093, 6.0000000000e-05, 0.0000000000e+00, 1.4900000000e-04
4094, 7.5000000000e-05, 0.0000000000e+00, 1.4900000000e-04
4095, 9.0000000000e-05, 0.0000000000e+00, 1.4900000000e-04
4096, 9.2000000000e-05, 0.0000000000e+00, 1.4900000000e-04
4097, 9.4000000000e-05, 0.0000000000e+00, 1.4900000000e-04
4098, 9.6000000000e-05, 0.0000000000e+00, 1.4900000000e-04
4099, 9.8000000000e-05, 0.0000000000e+00, 1.4900000000e-04
4100, 1.0000000000e-04, 0.0000000000e+00, 1.4900000000e-04
4101, 1.0200000000e-04, 0.0000000000e+00, 1.4900000000e-04
4102, 1.0400000000e-04, 0.0000000000e+00, 1.4900000000e-04
4103, 1.0600000000e-04, 0.0000000000e+00, 1.4900000000e-04
4104, 1.0800000000e-04, 0.0000000000e+00, 1.4900000000e-04
4105, 1.1000000000e-04, 0.0000000000e+00, 1.4900000000e-04
4106, 1.3000000000e-04, 0.0000000000e+00, 1.4900000000e-04
4107, 1.5000000000e-04, 0.0000000000e+00, 1.4900000000e-04
4108, 1.7000000000e-04, 0.0000000000e+00, 1.4900000000e-04
4109, 1.9000000000e-04, 0.0000000000e+00, 1.4900000000e-04
4110, 2.1000000000e-04, 0.0000000000e+00, 1.4900000000e-04
4111, 2.3000000000e-04, 0.0000000000e+00, 1.4900000000e-04
4112, 2.5000000000e-04, 0.0000000000e+00, 1.4900000000e-04
4113, 2.7000000000e-04, 0.0000000000e+00, 1.4900000000e-04
4114, 2.9000000000e-04, 0.0000000000e+00, 1.4900000000e-04
4115, 3.1000000000e-04, 0.0000000000e+00, 1.4900000000e-04
4116, 3.3000000000e-04, 0.0000000000e+00, 1.4900000000e-04
4117, 3.5000000000e-04, 0.0000000000e+00, 1.4900000000e-04
4118, 3.7000000000e-04, 0.0000000000e+00, 1.4900000000e-04
4119, 3.9000000000e-04, 0.0000000000e+00, 1.4900000000e-04
4120, 4.1000000000e-04, 0.0000000000e+00, 1.4900000000e-04
4121, 4.3000000000e-04, 0.0000000000e+00, 1.4900000000e-04
4122, 4.5000000000e-04, 0.0000000000e+00, 1.4900000000e-04
4123, 4.7000000000e-04, 0.0000000000e+00, 1.4900000000e-04
4124, 4.9000000000e-04, 0.0000000000e+00, 1.4900000000e-04
4125, 4.9200000000e-04, 0.0000000000e+00, 1.4900000000e-04
4126, 4.9400000000e-04, 0.0000000000e+00, 1.4900000000e-04
4127, 4.9600000000e-04, 0.0000000000e+00, 1.4900000000e-04
4128, 4.9800000000e-04, 0.0000000000e+00, 1.4900000000e-04
4129, 5.0000000000e-04, 0.0000000000e+00, 1.4900000000e-04
4130, 5.0200000000e-04, 0.0000000000e+00, 1.4900000000e-04
4131, 5.0400000000e-04, 0.0000000000e+00, 1.4900000000e-04
4132, 5.0600000000e-04, 0.0000000000e+00, 1.4900000000e-04
4133, 5.0800000000e-04, 0.0000000000e+00, 1.4900000000e-04
4134, 5.1000000000e-04, 0.0000000000e+00, 1.4900000000e-04
4135, 5.2500000000e-04, 0.0000000000e+00, 1.4900000000e-04
4136, 5.4000000000e-04, 0.0000000000e+00, 1.4900000000e-04
4137, 5.5500000000e-04, 0.0000000000e+00, 1.4900000000e-04
4138, 5.7000000000e-04, 0.0000000000e+00, 1.4900000000e-04
4139, 5.8500000000e-04, 0.0000000000e+00, 1.4900000000e-04
4140, 6.0000000000e-04, 0.0000000000e+00, 1.4900000000e-04
4141, 0.0000000000e+00, 5.0000000000e-05, 1.4900000000e-04
4142, 1.5000000000e-05, 5.0000000000e-05, 1.4900000000e-04
4143, 3.0000000000e-05, 5.0000000000e-05, 1.4900000000e-04
4144, 4.5000000000e-05, 5.0000000000e-05, 1.4900000000e-04
4145, 6.0000000000e-05, 5.0000000000e-05, 1.4900000000e-04
4146, 7.5000000000e-05, 5.0000000000e-05, 1.4900000000e-04
4147, 9.0000000000e-05, 5.0000000000e-05, 1.4900000000e-04
4148, 9.2000000000e-05, 5.0000000000e-05, 1.4900000000e-04
4149, 9.4000000000e-05, 5.0000000000e-05, 1.4900000000e-04
4150, 9.6000000000e-05, 5.0000000000e-05, 1.4900000000e-04
4151, 9.8000000000e-05, 5.0000000000e-05, 1.4900000000e-04
4152, 1.0000000000e-04, 5.0000000000e-05, 1.4900000000e-04
4153, 1.0200000000e-04, 5.0000000000e-05, 1.4900000000e-04
4154, 1.0400000000e-04, 5.0000000000e-05, 1.4900000000e-04
4155, 1.0600000000e-04, 5.0000000000e-05, 1.4900000000e-04
4156, 1.0800000000e-04, 5.0000000000e-05, 1.4900000000e-04
4157, 1.1000000000e-04, 5.0000000000e-05, 1.4900000000e-04
4158, 1.3000000000e-04, 5.0000000000e-05, 1.4900000000e-04
4159, 1.5000000000e-04, 5.0000000000e-05, 1.4900000000e-04
4160, 1.7000000000e-04, 5.0000000000e-05, 1.4900000000e-04
4161, 1.9000000000e-04, 5.0000000000e-05, 1.4900000000e-04
4162, 2.1000000000e-04, 5.0000000000e-05, 1.4900000000e-04
4163, 2.3000000000e-04, 5.0000000000e-05, 1.4900000000e-04
4164, 2.5000000000e-04, 5.0000000000e-05, 1.4900000000e-04
4165, 2.7000000000e-04, 5.0000000000e-05, 1.4900000000e-04
4166, 2.9000000000e-04, 5.0000000000e-05, 1.4900000000e-04
4167, 3.1000000000e-04, 5.0000000000e-05, 1.4900000000e-04
4168, 3.3000000000e-04, 5.0000000000e-05, 1.4900000000e-04
4169, 3.5000000000e-04, 5.0000000000e-05, 1.4900000000e-04
4170, 3.7000000000e-04, 5.0000000000e-05, 1.4900000000e-04
4171, 3.9000000000e-04, 5.0000000000e-05, 1.4900000000e-04
4172, 4.1000000000e-04, 5.0000000000e-05, 1.4900000000e-04
4173, 4.3000000000e-04, 5.0000000000e-05, 1.4900000000e-04
4174, 4.5000000000e-04, 5.0000000000e-05, 1.4900000000e-04
4175, 4.7000000000e-04, 5.0000000000e-05, 1.4900000000e-04
4176, 4.9000000000e-04, 5.0000000000e-05, 1.4900000000e-04
4177, 4.9200000000e-04, 5.0000000000e-05, 1.4900000000e-04
4178, 4.9400000000e-04, 5.0000000000e-05, 1.4900000000e-04
4179, 4.9600000000e-04, 5.0000000000e-05, 1.4900000000e-04
4180, 4.9800000000e-04, 5.0000000000e-05, 1.4900000000e-04
4181, 5.0000000000e-04, 5.0000000000e-05, 1.4900000000e-04
4182, 5.0200000000e-04, 5.0000000000e-05, 1.4900000000e-04
4183, 5.0400000000e-04, 5.0000000000e-05, 1.4900000000e-04
4184, 5.0600000000e-04, 5.0000000000e-05, 1.4900000000e-04
4185, 5.0800000000e-04, 5.0000000000e-05, 1.4900000000e-04
4186, 5.1000000000e-04, 5.0000000000e-05, 1.4900000000e-04
4187, 5.2500000000e-04, 5.0000000000e-05, 1.4900000000e-04
4188, 5.4000000000e-04, 5.0000000000e-05, 1.4900000000e-04
4189, 5.5500000000e-04, 5.0000000000e-05, 1.4900000000e-04
4190, 5.7000000000e-04, 5.0000000000e-05, 1.4900000000e-04
4191, 5.8500000000e-04, 5.0000000000e-05, 1.4900000000e-04
4192, 6.0000000000e-04, 5.0000000000e-05, 1.4900000000e-04
4193, 0.0000000000e+00, 0.0000000000e+00, 1.6600000000e-04
4194, 1.5000000000e-05, 0.0000000000e+00, 1.6600000000e-04
4195, 3.0000000000e-05, 0.0000000000e+00, 1.6600000000e-04
4196, 4.5000000000e-05, 0.0000000000e+00, 1.6600000000e-04
4197, 6.0000000000e-05, 0.0000000000e+00, 1.6600000000e-04
4198, 7.5000000000e-05, 0.0000000000e+00, 1.6600000000e-04
4199, 9.0000000000e-05, 0.0000000000e+00, 1.6600000000e-04
4200, 9.2000000000e-05, 0.0000000000e+00, 1.6600000000e-04
4201, 9.4000000000e-05, 0.0000000000e+00, 1.6600000000e-04
4202, 9.6000000000e-05, 0.0000000000e+00, 1.6600000000e-04
4203, 9.8000000000e-05, 0.0000000000e+00, 1.6600000000e-04
4204, 1.0000000000e-04, 0.0000000000e+00, 1.6600000000e-04
4205, 1.0200000000e-04, 0.0000000000e+00, 1.6600000000e-04
4206, 1.0400000000e-04, 0.0000000000e+00, 1.6600000000e-04
4207, 1.0600000000e-04, 0.0000000000e+00, 1.6600000000e-04
4208, 1.0800000000e-04, 0.0000000000e+00, 1.6600000000e-04
4209, 1.1000000000e-04, 0.0000000000e+00, 1.6600000000e-04
4210, 1.3000000000e-04, 0.0000000000e+00, 1.6600000000e-04
4211, 1.5000000000e-04, 0.0000000000e+00, 1.6600000000e-04
4212, 1.7000000000e-04, 0.0000000000e+00, 1.6600000000e-04
4213, 1.9000000000e-04, 0.0000000000e+00, 1.6600000000e-04
4214, 2.1000000000e-04, 0.0000000000e+00, 1.6600000000e-04
4215, 2.3000000000e-04, 0.0000000000e+00, 1.6600000000e-04
4216, 2.5000000000e-04, 0.0000000000e+00, 1.6600000000e-04
4217, 2.7000000000e-04, 0.0000000000e+00, 1.6600000000e-04
4218, 2.9000000000e-04, 0.0000000000e+00, 1.6600000000e-04
4219, 3.1000000000e-04, 0.0000000000e+00, 1.6600000000e-04
4220, 3.3000000000e-04, 0.0000000000e+00, 1.6600000000e-04
4221, 3.5000000000e-04, 0.0000000000e+00, 1.6600000000e-04
4222, 3.7000000000e-04, 0.0000000000e+00, 1.6600000000e-04
4223, 3.9000000000e-04, 0.0000000000e+00, 1.6600000000e-04
4224, 4.1000000000e-04, 0.0000000000e+00, 1.6600000000e-04
4225, 4.3000000000e-04, 0.0000000000e+00, 1.6600000000e-04
4226, 4.5000000000e-04, 0.0000000000e+00, 1.6600000000e-04
4227, 4.7000000000e-04, 0.0000000000e+00, 1.6600000000e-04
4228, 4.9000000000e-04, 0.0000000000e+00, 1.6600000000e-04
4229, 4.9200000000e-04, 0.0000000000e+00, 1.6600000000e-04
4230, 4.9400000000e-04, 0.0000000000e+00, 1.6600000000e-04
4231, 4.9600000000e-04, 0.0000000000e+00, 1.6600000000e-04
4232, 4.9800000000e-04, 0.0000000000e+00, 1.6600000000e-04
4233, 5.0000000000e-04, 0.0000000000e+00, 1.6600000000e-04
4234, 5.0200000000e-04, 0.0000000000e+00, 1.6600000000e-04
4235, 5.0400000000e-04, 0.0000000000e+00, 1.6600000000e-04
4236, 5.0600000000e-04, 0.0000000000e+00, 1.6600000000e-04
4237, 5.0800000000e-04, 0.0000000000e+00, 1.6600000000e-04
4238, 5.1000000000e-04, 0.0000000000e+00, 1.6600000000e-04
4239, 5.2500000000e-04, 0.0000000000e+00, 1.6600000000e-04
4240, 5.4000000000e-04, 0.0000000000e+00, 1.6600000000e-04
4241, 5.5500000000e-04, 0.0000000000e+00, 1.6600000000e-04
4242, 5.7000000000e-04, 0.0000000000e+00, 1.6600000000e-04
4243, 5.8500000000e-04, 0.0000000000e+00, 1.6600000000e-04
4244, 6.0000000000e-04, 0.0000000000e+00, 1.6600000000e-04
4245, 0.0000000000e+00, 5.0000000000e-05, 1.6600000000e-04
4246, 1.5000000000e-05, 5.0000000000e-05, 1.6600000000e-04
4247, 3.0000000000e-05, 5.0000000000e-05, 1.6600000000e-04
4248, 4.5000000000e-05, 5.0000000000e-05, 1.6600000000e-04
4249, 6.0000000000e-05, 5.0000000000e-05, 1.6600000000e-04
4250, 7.5000000000e-05, 5.0000000000e-05, 1.6600000000e-04
4251, 9.0000000000e-05, 5.0000000000e-05, 1.6600000000e-04
4252, 9.2000000000e-05, 5.0000000000e-05, 1.6600000000e-04
4253, 9.4000000000e-05, 5.0000000000e-05, 1.6600000000e-04
4254, 9.6000000000e-05, 5.0000000000e-05, 1.6600000000e-04
4255, 9.8000000000e-05, 5.0000000000e-05, 1.6600000000e-04
4256, 1.0000000000e-04, 5.0000000000e-05, 1.6600000000e-04
4257, 1.0200000000e-04, 5.0000000000e-05, 1.6600000000e-04
4258, 1.0400000000e-04, 5.0000000000e-05, 1.6600000000e-04
4259, 1.0600000000e-04, 5.0000000000e-05, 1.6600000000e-04
4260, 1.0800000000e-04, 5.0000000000e-05, 1.6600000000e-04
4261, 1.1000000000e-04, 5.0000000000e-05, 1.6600000000e-04
4262, 1.3000000000e-04, 5.0000000000e-05, 1.6600000000e-04
4263, 1.5000000000e-04, 5.0000000000e-05, 1.6600000000e-04
4264, 1.7000000000e-04, 5.0000000000e-05, 1.6600000000e-04
4265, 1.9000000000e-04, 5.0000000000e-05, 1.6600000000e-04
4266, 2.1000000000e-04, 5.0000000000e-05, 1.6600000000e-04
4267, 2.3000000000e-04, 5.0000000000e-05, 1.6600000000e-04
4268, 2.5000000000e-04, 5.0000000000e-05, 1.6600000000e-04
4269, 2.7000000000e-04, 5.0000000000e-05, 1.6600000000e-04
4270, 2.9000000000e-04, 5.0000000000e-05, 1.6600000000e-04
4271, 3.1000000000e-04, 5.0000000000e-05, 1.6600000000e-04
4272, 3.3000000000e-04, 5.0000000000e-05, 1.6600000000e-04
4273, 3.5000000000e-04, 5.0000000000e-05, 1.6600000000e-04
4274, 3.7000000000e-04, 5.0000000000e-05, 1.6600000000e-04
4275, 3.9000000000e-04, 5.0000000000e-05, 1.6600000000e-04
4276, 4.1000000000e-04, 5.0000000000e-05, 1.6600000000e-04
4277, 4.3000000000e-04, 5.0000000000e-05, 1.6600000000e-04
4278, 4.5000000000e-04, 5.0000000000e-05, 1.6600000000e-04
4279, 4.7000000000e-04, 5.0000000000e-05, 1.6600000000e-04
4280, 4.9000000000e-04, 5.0000000000e-05, 1.6600000000e-04
4281, 4.9200000000e-04, 5.0000000000e-05, 1.6600000000e-04
4282, 4.9400000000e-04, 5.0000000000e-05, 1.6600000000e-04
4283, 4.9600000000e-04, 5.0000000000e-05, 1.6600000000e-04
4284, 4.9800000000e-04, 5.0000000000e-05, 1.6600000000e-04
4285, 5.0000000000e-04, 5.0000000000e-05, 1.6600000000e-04
4286, 5.0200000000e-04, 5.0000000000e-05, 1.6600000000e-04
4287, 5.0400000000e-04, 5.0000000000e-05, 1.6600000000e-04
4288, 5.0600000000e-04, 5.0000000000e-05, 1.6600000000e-04
4289, 5.0800000000e-04, 5.0000000000e-05, 1.6600000000e-04
4290, 5.1000000000e-04, 5.0000000000e-05, 1.6600000000e-04
4291, 5.2500000000e-04, 5.0000000000e-05, 1.6600000000e-04
4292, 5.4000000000e-04, 5.0000000000e-05, 1.6600000000e-04
4293, 5.5500000000e-04, 5.0000000000e-05, 1.6600000000e-04
4294, 5.7000000000e-04, 5.0000000000e-05, 1.6600000000e-04
4295, 5.8500000000e-04, 5.0000000000e-05, 1.6600000000e-04
4296, 6.0000000000e-04, 5.0000000000e-05, 1.6600000000e-04
4297, 0.0000000000e+00, 0.0000000000e+00, 1.8300000000e-04
4298, 1.5000000000e-05, 0.0000000000e+00, 1.8300000000e-04
4299, 3.0000000000e-05, 0.0000000000e+00, 1.8300000000e-04
4300, 4.5000000000e-05, 0.0000000000e+00, 1.8300000000e-04
4301, 6.0000000000e-05, 0.0000000000e+00, 1.8300000000e-04
4302, 7.5000000000e-05, 0.0000000000e+00, 1.8300000000e-04
4303, 9.0000000000e-05, 0.0000000000e+00, 1.8300000000e-04
4304, 9.2000000000e-05, 0.0000000000e+00, 1.8300000000e-04
4305, 9.4000000000e-05, 0.0000000000e+00, 1.8300000000e-04
4306, 9.6000000000e-05, 0.0000000000e+00, 1.8300000000e-04
4307, 9.8000000000e-05, 0.0000000000e+00, 1.8300000000e-04
4308, 1.0000000000e-04, 0.0000000000e+00, 1.8300000000e-04
4309, 1.0200000000e-04, 0.0000000000e+00, 1.8300000000e-04
4310, 1.0400000000e-04, 0.0000000000e+00, 1.8300000000e-04
4311, 1.0600000000e-04, 0.0000000000e+00, 1.8300000000e-04
4312, 1.0800000000e-04, 0.0000000000e+00, 1.8300000000e-04
4313, 1.1000000000e-04, 0.0000000000e+00, 1.8300000000e-04
4314, 1.3000000000e-04, 0.0000000000e+00, 1.8300000000e-04
4315, 1.5000000000e-04, 0.0000000000e+00, 1.8300000000e-04
4316, 1.7000000000e-04, 0.0000000000e+00, 1.8300000000e-04
4317, 1.9000000000e-04, 0.0000000000e+00, 1.8300000000e-04
4318, 2.1000000000e-04, 0.0000000000e+00, 1.8300000000e-04
4319, 2.3000000000e-04, 0.0000000000e+00, 1.8300000000e-04
4320, 2.5000000000e-04, 0.0000000000e+00, 1.8300000000e-04
4321, 2.7000000000e-04, 0.0000000000e+00, 1.8300000000e-04
4322, 2.9000000000e-04, 0.0000000000e+00, 1.8300000000e-04
4323, 3.1000000000e-04, 0.0000000000e+00, 1.8300000000e-04
4324, 3.3000000000e-04, 0.0000000000e+00, 1.8300000000e-04
4325, 3.5000000000e-04, 0.0000000000e+00, 1.8300000000e-04
4326, 3.7000000000e-04, 0.0000000000e+00, 1.8300000000e-04
4327, 3.9000000000e-04, 0.0000000000e+00, 1.8300000000e-04
4328, 4.1000000000e-04, 0.0000000000e+00, 1.8300000000e-04
4329, 4.3000000000e-04, 0.0000000000e+00, 1.8300000000e-04
4330, 4.5000000000e-04, 0.0000000000e+00, 1.8300000000e-04
4331, 4.7000000000e-04, 0.0000000000e+00, 1.8300000000e-04
4332, 4.9000000000e-04, 0.0000000000e+00, 1.8300000000e-04
4333, 4.9200000000e-04, 0.0000000000e+00, 1.8300000000e-04
4334, 4.9400000000e-04, 0.0000000000e+00, 1.8300000000e-04
4335, 4.9600000000e-04, 0.0000000000e+00, 1.8300000000e-04
4336, 4.9800000000e-04, 0.0000000000e+00, 1.8300000000e-04
4337, 5.0000000000e-04, 0.0000000000e+00, 1.8300000000e-04
4338, 5.0200000000e-04, 0.0000000000e+00, 1.8300000000e-04
4339, 5.0400000000e-04, 0.0000000000e+00, 1.8300000000e-04
4340, 5.0600000000e-04, 0.0000000000e+00, 1.8300000000e-04
4341, 5.0800000000e-04, 0.0000000000e+00, 1.8300000000e-04
4342, 5.1000000000e-04, 0.0000000000e+00, 1.8300000000e-04
4343, 5.2500000000e-04, 0.0000000000e+00, 1.8300000000e-04
4344, 5.4000000000e-04, 0.0000000000e+00, 1.8300000000e-04
4345, 5.5500000000e-04, 0.0000000000e+00, 1.8300000000e-04
4346, 5.7000000000e-04, 0.0000000000e+00, 1.8300000000e-04
4347, 5.8500000000e-04, 0.0000000000e+00, 1.8300000000e-04
4348, 6.0000000000e-04, 0.0000000000e+00, 1.8300000000e-04
4349, 0.0000000000e+00, 5.0000000000e-05, 1.8300000000e-04
4350, 1.5000000000e-05, 5.0000000000e-05, 1.8300000000e-04
4351, 3.0000000000e-05, 5.0000000000e-05, 1.8300000000e-04
4352, 4.5000000000e-05, 5.0000000000e-05, 1.8300000000e-04
4353, 6.0000000000e-05, 5.0000000000e-05, 1.8300000000e-04
4354, 7.5000000000e-05, 5.0000000000e-05, 1.8300000000e-04
4355, 9.0000000000e-05, 5.0000000000e-05, 1.8300000000e-04
4356, 9.2000000000e-05, 5.0000000000e-05, 1.8300000000e-04
4357, 9.4000000000e-05, 5.0000000000e-05, 1.8300000000e-04
4358, 9.6000000000e-05, 5.0000000000e-05, 1.8300000000e-04
4359, 9.8000000000e-05, 5.0000000000e-05, 1.8300000000e-04
4360, 1.0000000000e-04, 5.0000000000e-05, 1.8300000000e-04
4361, 1.0200000000e-04, 5.0000000000e-05, 1.8300000000e-04
4362, 1.0400000000e-04, 5.0000000000e-05, 1.8300000000e-04
4363, 1.0600000000e-04, 5.0000000000e-05, 1.8300000000e-04
4364, 1.0800000000e-04, 5.0000000000e-05, 1.8300000000e-04
4365, 1.1000000000e-04, 5.0000000000e-05, 1.8300000000e-04
4366, 1.3000000000e-04, 5.0000000000e-05, 1.8300000000e-04
4367, 1.5000000000e-04, 5.0000000000e-05, 1.8300000000e-04
4368, 1.7000000000e-04, 5.0000000000e-05, 1.8300000000e-04
4369, 1.9000000000e-04, 5.0000000000e-05, 1.8300000000e-04
4370, 2.1000000000e-04, 5.0000000000e-05, 1.8300000000e-04
4371, 2.3000000000e-04, 5.0000000000e-05, 1.8300000000e-04
4372, 2.5000000000e-04, 5.0000000000e-05, 1.8300000000e-04
4373, 2.7000000000e-04, 5.0000000000e-05, 1.8300000000e-04
4374, 2.9000000000e-04, 5.0000000000e-05, 1.8300000000e-04
4375, 3.1000000000e-04, 5.0000000000e-05, 1.8300000000e-04
4376, 3.3000000000e-04, 5.0000000000e-05, 1.8300000000e-04
4377, 3.5000000000e-04, 5.0000000000e-05, 1.8300000000e-04
4378, 3.7000000000e-04, 5.0000000000e-05, 1.8300000000e-04
4379, 3.9000000000e-04, 5.0000000000e-05, 1.8300000000e-04
4380, 4.1000000000e-04, 5.0000000000e-05, 1.8300000000e-04
4381, 4.3000000000e-04, 5.0000000000e-05, 1.8300000000e-04
4382, 4.5000000000e-04, 5.0000000000e-05, 1.8300000000e-04
4383, 4.7000000000e-04, 5.0000000000e-05, 1.8300000000e-04
4384, 4.9000000000e-04, 5.0000000000e-05, 1.8300000000e-04
4385, 4.9200000000e-04, 5.0000000000e-05, 1.8300000000e-04
4386, 4.9400000000e-04, 5.0000000000e-05, 1.8300000000e-04
4387, 4.9600000000e-04, 5.0000000000e-05, 1.8300000000e-04
4388, 4.9800000000e-04, 5.0000000000e-05, 1.8300000000e-04
4389, 5.0000000000e-04, 5.0000000000e-05, 1.8300000000e-04
4390, 5.0200000000e-04, 5.0000000000e-05, 1.8300000000e-04
4391, 5.0400000000e-04, 5.0000000000e-05, 1.8300000000e-04
4392, 5.0600000000e-04, 5.0000000000e-05, 1.8300000000e-04
4393, 5.0800000000e-04, 5.0000000000e-05, 1.8300000000e-04
4394, 5.1000000000e-04, 5.0000000000e-05, 1.8300000000e-04
4395, 5.2500000000e-04, 5.0000000000e-05, 1.8300000000e-04
4396, 5.4000000000e-04, 5.0000000000e-05, 1.8300000000e-04
4397, 5.5500000000e-04, 5.0000000000e-05, 1.8300000000e-04
4398, 5.7000000000e-04, 5.0000000000e-05, 1.8300000000e-04
4399, 5.8500000000e-04, 5.0000000000e-05, 1.8300000000e-04
4400, 6.0000000000e-04, 5.0000000000e-05, 1.8300000000e-04
4401, 0.0000000000e+00, 0.0000000000e+00, 2.0000000000e-04
4402, 1.5000000000e-05, 0.0000000000e+00, 2.0000000000e-04
4403, 3.0000000000e-05, 0.0000000000e+00, 2.0000000000e-04
4404, 4.5000000000e-05, 0.0000000000e+00, 2.0000000000e-04
4405, 6.0000000000e-05, 0.0000000000e+00, 2.0000000000e-04
4406, 7.5000000000e-05, 0.0000000000e+00, 2.0000000000e-04
4407, 9.0000000000e-05, 0.0000000000e+00, 2.0000000000e-04
4408, 9.2000000000e-05, 0.0000000000e+00, 2.0000000000e-04
4409, 9.4000000000e-05, 0.0000000000e+00, 2.0000000000e-04
4410, 9.6000000000e-05, 0.0000000000e+00, 2.0000000000e-04
4411, 9.8000000000e-05, 0.0000000000e+00, 2.0000000000e-04
4412, 1.0000000000e-04, 0.0000000000e+00, 2.0000000000e-04
4413, 1.0200000000e-04, 0.0000000000e+00, 2.0000000000e-04
4414, 1.0400000000e-04, 0.0000000000e+00, 2.0000000000e-04
4415, 1.0600000000e-04, 0.0000000000e+00, 2.0000000000e-04
4416, 1.0800000000e-04, 0.0000000000e+00, 2.0000000000e-04
4417, 1.1000000000e-04, 0.0000000000e+00, 2.0000000000e-04
4418, 1.3000000000e-04, 0.0000000000e+00, 2.0000000000e-04
4419, 1.5000000000e-04, 0.0000000000e+00, 2.0000000000e-04
4420, 1.7000000000e-04, 0.0000000000e+00, 2.0000000000e-04
4421, 1.9000000000e-04, 0.0000000000e+00, 2.0000000000e-04
4422, 2.1000000000e-04, 0.0000000000e+00, 2.0000000000e-04
4423, 2.3000000000e-04, 0.0000000000e+00, 2.0000000000e-04
4424, 2.5000000000e-04, 0.0000000000e+00, 2.0000000000e-04
4425, 2.7000000000e-04, 0.0000000000e+00, 2.0000000000e-04
4426, 2.9000000000e-04, 0.0000000000e+00, 2.0000000000e-04
4427, 3.1000000000e-04, 0.0000000000e+00, 2.0000000000e-04
4428, 3.3000000000e-04, 0.0000000000e+00, 2.0000000000e-04
4429, 3.5000000000e-04, 0.0000000000e+00, 2.0000000000e-04
4430, 3.7000000000e-04, 0.0000000000e+00, 2.0000000000e-04
4431, 3.9000000000e-04, 0.0000000000e+00, 2.0000000000e-04
4432, 4.1000000000e-04, 0.0000000000e+00, 2.0000000000e-04
4433, 4.3000000000e-04, 0.0000000000e+00, 2.0000000000e-04
4434, 4.5000000000e-04, 0.0000000000e+00, 2.0000000000e-04
4435, 4.7000000000e-04, 0.0000000000e+00, 2.0000000000e-04
4436, 4.9000000000e-04, 0.0000000000e+00, 2.0000000000e-04
4437, 4.9200000000e-04, 0.0000000000e+00, 2.0000000000e-04
4438, 4.9400000000e-04, 0.0000000000e+00, 2.0000000000e-04
4439, 4.9600000000e-04, 0.0000000000e+00, 2.0000000000e-04
4440, 4.9800000000e-04, 0.0000000000e+00, 2.0000000000e-04
4441, 5.0000000000e-04, 0.0000000000e+00, 2.0000000000e-04
4442, 5.0200000000e-04, 0.0000000000e+00, 2.0000000000e-04
4443, 5.0400000000e-04, 0.0000000000e+00, 2.0000000000e-04
4444, 5.0600000000e-04, 0.0000000000e+00, 2.0000000000e-04
4445, 5.0800000000e-04, 0.0000000000e+00, 2.0000000000e-04
4446, 5.1000000000e-04, 0.0000000000e+00, 2.0000000000e-04
4447, 5.2500000000e-04, 0.0000000000e+00, 2.0000000000e-04
4448, 5.4000000000e-04, 0.0000000000e+00, 2.0000000000e-04
4449, 5.5500000000e-04, 0.0000000000e+00, 2.0000000000e-04
4450, 5.7000000000e-04, 0.0000000000e+00, 2.0000000000e-04
4451, 5.8500000000e-04, 0.0000000000e+00, 2.0000000000e-04
4452, 6.0000000000e-04, 0.0000000000e+00, 2.0000000000e-04
4453, 0.0000000000e+00, 5.0000000000e-05, 2.0000000000e-04
4454, 1.5000000000e-05, 5.0000000000e-05, 2.0000000000e-04
4455, 3.0000000000e-05, 5.0000000000e-05, 2.0000000000e-04
4456, 4.5000000000e-05, 5.0000000000e-05, 2.0000000000e-04
4457, 6.0000000000e-05, 5.0000000000e-05, 2.0000000000e-04
4458, 7.5000000000e-05, 5.0000000000e-05, 2.0000000000e-04
4459, 9.0000000000e-05, 5.0000000000e-05, 2.0000000000e-04
4460, 9.2000000000e-05, 5.0000000000e-05, 2.0000000000e-04
4461, 9.4000000000e-05, 5.0000000000e-05, 2.0000000000e-04
4462, 9.6000000000e-05, 5.0000000000e-05, 2.0000000000e-04
4463, 9.8000000000e-05, 5.0000000000e-05, 2.0000000000e-04
4464, 1.0000000000e-04, 5.0000000000e-05, 2.0000000000e-04
4465, 1.0200000000e-04, 5.0000000000e-05, 2.0000000000e-04
4466, 1.0400000000e-04, 5.0000000000e-05, 2.0000000000e-04
4467, 1.0600000000e-04, 5.0000000000e-05, 2.0000000000e-04
4468, 1.0800000000e-04, 5.0000000000e-05, 2.0000000000e-04
4469, 1.1000000000e-04, 5.0000000000e-05, 2.0000000000e-04
4470, 1.3000000000e-04, 5.0000000000e-05, 2.0000000000e-04
4471, 1.5000000000e-04, 5.0000000000e-05, 2.0000000000e-04
4472, 1.7000000000e-04, 5.0000000000e-05, 2.0000000000e-04
4473, 1.9000000000e-04, 5.0000000000e-05, 2.0000000000e-04
4474, 2.1000000000e-04, 5.0000000000e-05, 2.0000000000e-04
4475, 2.3000000000e-04, 5.0000000000e-05, 2.0000000000e-04
4476, 2.5000000000e-04, 5.0000000000e-05, 2.0000000000e-04
4477, 2.7000000000e-04, 5.0000000000e-05, 2.0000000000e-04
4478, 2.9000000000e-04, 5.0000000000e-05, 2.0000000000e-04
4479, 3.1000000000e-04, 5.0000000000e-05, 2.0000000000e-04
4480, 3.3000000000e-04, 5.0000000000e-05, 2.0000000000e-04
4481, 3.5000000000e-04, 5.0000000000e-05, 2.0000000000e-04
4482, 3.7000000000e-04, 5.0000000000e-05, 2.0000000000e-04
4483, 3.9000000000e-04, 5.0000000000e-05, 2.0000000000e-04
4484, 4.1000000000e-04, 5.0000000000e-05, 2.0000000000e-04
4485, 4.3000000000e-04, 5.0000000000e-05, 2.0000000000e-04
4486, 4.5000000000e-04, 5.0000000000e-05, 2.0000000000e-04
4487, 4.7000000000e-04, 5.0000000000e-05, 2.0000000000e-04
4488, 4.9000000000e-04, 5.0000000000e-05, 2.0000000000e-04
4489, 4.9200000000e-04, 5.0000000000e-05, 2.0000000000e-04
4490, 4.9400000000e-04, 5.0000000000e-05, 2.0000000000e-04
4491, 4.9600000000e-04, 5.0000000000e-05, 2.0000000000e-04
4492, 4.9800000000e-04, 5.0000000000e-05, 2.0000000000e-04
4493, 5.0000000000e-04, 5.0000000000e-05, 2.0000000000e-04
4494, 5.0200000000e-04, 5.0000000000e-05, 2.0000000000e-04
4495, 5.0400000000e-04, 5.0000000000e-05, 2.0000000000e-04
4496, 5.0600000000e-04, 5.0000000000e-05, 2.0000000000e-04
4497, 5.0800000000e-04, 5.0000000000e-05, 2.0000000000e-04
4498, 5.1000000000e-04, 5.0000000000e-05, 2.0000000000e-04
4499, 5.2500000000e-04, 5.0000000000e-05, 2.0000000000e-04
4500, 5.4000000000e-04, 5.0000000000e-05, 2.0000000000e-04
4501, 5.5500000000e-04, 5.0000000000e-05, 2.0000000000e-04
4502, 5.7000000000e-04, 5.0000000000e-05, 2.0000000000e-04
4503, 5.8500000000e-04, 5.0000000000e-05, 2.0000000000e-04
4504, 6.0000000000e-04, 5.0000000000e-05, 2.0000000000e-04
*ELEMENT, TYPE=U1, ELSET=EOX
1, 1, 2, 32, 31, 61, 62, 92, 91
2, 2, 3, 33, 32, 62, 63, 93, 92
3, 3, 4, 34, 33, 63, 64, 94, 93
4, 4, 5, 35, 34, 64, 65, 95, 94
5, 5, 6, 36, 35, 65, 66, 96, 95
6, 6, 7, 37, 36, 66, 67, 97, 96
7, 7, 8, 38, 37, 67, 68, 98, 97
8, 8, 9, 39, 38, 68, 69, 99, 98
9, 9, 10, 40, 39, 69, 70, 100, 99
10, 10, 11, 41, 40, 70, 71, 101, 100
11, 11, 12, 42, 41, 71, 72, 102, 101
12, 12, 13, 43, 42, 72, 73, 103, 102
13, 13, 14, 44, 43, 73, 74, 104, 103
14, 14, 15, 45, 44, 74, 75, 105, 104
15, 15, 16, 46, 45, 75, 76, 106, 105
16, 16, 17, 47, 46, 76, 77, 107, 106
17, 17, 18, 48, 47, 77, 78, 108, 107
18, 18, 19, 49, 48, 78, 79, 109, 108
19, 19, 20, 50, 49, 79, 80, 110, 109
20, 20, 21, 51, 50, 80, 81, 111, 110
21, 21, 22, 52, 51, 81, 82, 112, 111
22, 22, 23, 53, 52, 82, 83, 113, 112
23, 23, 24, 54, 53, 83, 84, 114, 113
24, 24, 25, 55, 54, 84, 85, 115, 114
25, 25, 26, 56, 55, 85, 86, 116, 115
26, 26, 27, 57, 56, 86, 87, 117, 116
27, 27, 28, 58, 57, 87, 88, 118, 117
28, 28, 29, 59, 58, 88, 89, 119, 118
29, 29, 30, 60, 59, 89, 90, 120, 119
30, 61, 62, 92, 91, 121, 122, 152, 151
31, 62, 63, 93, 92, 122, 123, 153, 152
32, 63, 64, 94, 93, 123, 124, 154, 153
33, 64, 65, 95, 94, 124, 125, 155, 154
34, 65, 66, 96, 95, 125, 126, 156, 155
35, 66, 67, 97, 96, 126, 127, 157, 156
36, 67, 68, 98, 97, 127, 128, 158, 157
37, 68, 69, 99, 98, 128, 129, 159, 158
38, 69, 70, 100, 99, 129, 130, 160, 159
39, 70, 71, 101, 100, 130, 131, 161, 160
40, 71, 72, 102, 101, 131, 132, 162, 161
41, 72, 73, 103, 102, 132, 133, 163, 162
42, 73, 74, 104, 103, 133, 134, 164, 163
43, 74, 75, 105, 104, 134, 135, 165, 164
44, 75, 76, 106, 105, 135, 136, 166, 165
45, 76, 77, 107, 106, 136, 137, 167, 166
46, 77, 78, 108, 107, 137, 138, 168, 167
47, 78, 79, 109, 108, 138, 139, 169, 168
48, 79, 80, 110, 109, 139, 140, 170, 169
49, 80, 81, 111, 110, 140, 141, 171, 170
50, 81, 82, 112, 111, 141, 142, 172, 171
51, 82, 83, 113, 112, 142, 143, 173, 172
52, 83, 84, 114, 113, 143, 144, 174, 173
53, 84, 85, 115, 114, 144, 145, 175, 174
54, 85, 86, 116, 115, 145, 146, 176, 175
55, 86, 87, 117, 116, 146, 147, 177, 176
56, 87, 88, 118, 117, 147, 148, 178, 177
57, 88, 89, 119, 118, 148, 149, 179, 178
58, 89, 90, 120, 119, 149, 150, 180, 179
59, 121, 122, 152, 151, 181, 182, 212, 211
60, 122, 123, 153, 152, 182, 183, 213, 212
61, 123, 124, 154, 153, 183, 184, 214, 213
62, 124, 125, 155, 154, 184, 185, 215, 214
63, 125, 126, 156, 155, 185, 186, 216, 215
64, 126, 127, 157, 156, 186, 187, 217, 216
65, 127, 128, 158, 157, 187, 188, 218, 217
66, 128, 129, 159, 158, 188, 189, 219, 218
67, 129, 130, 160, 159, 189, 190, 220, 219
68, 130, 131, 161, 160, 190, 191, 221, 220
69, 131, 132, 162, 161, 191, 192, 222, 221
70, 132, 133, 163, 162, 192, 193, 223, 222
71, 133, 134, 164, 163, 193, 194, 224, 223
72, 134, 135, 165, 164, 194, 195, 225, 224
73, 135, 136, 166, 165, 195, 196, 226, 225
74, 136, 137, 167, 166, 196, 197, 227, 226
75, 137, 138, 168, 167, 197, 198, 228, 227
76, 138, 139, 169, 168, 198, 199, 229, 228
77, 139, 140, 170, 169, 199, 200, 230, 229
78, 140, 141, 171, 170, 200, 201, 231, 230
79, 141, 142, 172, 171, 201, 202, 232, 231
80, 142, 143, 173, 172, 202, 203, 233, 232
81, 143, 144, 174, 173, 203, 204, 234, 233
82, 144, 145, 175, 174, 204, 205, 235, 234
83, 145, 146, 176, 175, 205, 206, 236, 235
84, 146, 147, 177, 176, 206, 207, 237, 236
85, 147, 148, 178, 177, 207, 208, 238, 237
86, 148, 149, 179, 178, 208, 209, 239, 238
87, 149, 150, 180, 179, 209, 210, 240, 239
88, 181, 182, 212, 211, 252, 253, 305, 304
89, 182, 183, 213, 212, 253, 254, 306, 305
90, 183, 184, 214, 213, 254, 255, 307, 306
91, 184, 185, 215, 214, 255, 256, 308, 307
92, 185, 186, 216, 215, 256, 257, 309, 308
93, 186, 187, 217, 216, 257, 258, 310, 309
94, 187, 188, 218, 217, 258, 259, 311, 310
95, 188, 189, 219, 218, 259, 260, 312, 311
96, 189, 190, 220, 219, 260, 261, 313, 312
97, 190, 191, 221, 220, 261, 262, 314, 313
98, 191, 192, 222, 221, 262, 263, 315, 314
99, 192, 193, 223, 222, 263, 264, 316, 315
100, 193, 194, 224, 223, 264, 265, 317, 316
101, 194, 195, 225, 224, 265, 266, 318, 317
102, 195, 196, 226, 225, 266, 267, 319, 318
103, 196, 197, 227, 226, 267, 268, 320, 319
104, 197, 198, 228, 227, 268, 269, 321, 320
105, 198, 199, 229, 228, 269, 270, 322, 321
106, 199, 200, 230, 229, 270, 271, 323, 322
107, 200, 201, 231, 230, 271, 272, 324, 323
108, 201, 202, 232, 231, 272, 273, 325, 324
109, 202, 203, 233, 232, 273, 274, 326, 325
110, 203, 204, 234, 233, 274, 275, 327, 326
111, 204, 205, 235, 234, 275, 276, 328, 327
112, 205, 206, 236, 235, 276, 277, 329, 328
113, 206, 207, 237, 236, 277, 278, 330, 329
114, 207, 208, 238, 237, 278, 279, 331, 330
115, 208, 209, 239, 238, 279, 280, 332, 331
116, 209, 210, 240, 239, 280, 281, 333, 332
*ELEMENT, TYPE=U1, ELSET=ENP
117, 241, 242, 294, 293, 345, 346, 398, 397
118, 242, 243, 295, 294, 346, 347, 399, 398
119, 243, 244, 296, 295, 347, 348, 400, 399
120, 244, 245, 297, 296, 348, 349, 401, 400
121, 245, 246, 298, 297, 349, 350, 402, 401
122, 246, 247, 299, 298, 350, 351, 403, 402
123, 247, 248, 300, 299, 351, 352, 404, 403
124, 248, 249, 301, 300, 352, 353, 405, 404
125, 249, 250, 302, 301, 353, 354, 406, 405
126, 250, 251, 303, 302, 354, 355, 407, 406
127, 251, 252, 304, 303, 355, 356, 408, 407
157, 281, 282, 334, 333, 385, 386, 438, 437
158, 282, 283, 335, 334, 386, 387, 439, 438
159, 283, 284, 336, 335, 387, 388, 440, 439
160, 284, 285, 337, 336, 388, 389, 441, 440
161, 285, 286, 338, 337, 389, 390, 442, 441
162, 286, 287, 339, 338, 390, 391, 443, 442
163, 287, 288, 340, 339, 391, 392, 444, 443
164, 288, 289, 341, 340, 392, 393, 445, 444
165, 289, 290, 342, 341, 393, 394, 446, 445
166, 290, 291, 343, 342, 394, 395, 447, 446
167, 291, 292, 344, 343, 395, 396, 448, 447
168, 345, 346, 398, 397, 449, 450, 502, 501
169, 346, 347, 399, 398, 450, 451, 503, 502
170, 347, 348, 400, 399, 451, 452, 504, 503
171, 348, 349, 401, 400, 452, 453, 505, 504
172, 349, 350, 402, 401, 453, 454, 506, 505
173, 350, 351, 403, 402, 454, 455, 507, 506
174, 351, 352, 404, 403, 455, 456, 508, 507
175, 352, 353, 405, 404, 456, 457, 509, 508
176, 353, 354, 406, 405, 457, 458, 510, 509
177, 354, 355, 407, 406, 458, 459, 511, 510
178, 355, 356, 408, 407, 459, 460, 512, 511
208, 385, 386, 438, 437, 489, 490, 542, 541
209, 386, 387, 439, 438, 490, 491, 543, 542
210, 387, 388, 440, 439, 491, 492, 544, 543
211, 388, 389, 441, 440, 492, 493, 545, 544
212, 389, 390, 442, 441, 493, 494, 546, 545
213, 390, 391, 443, 442, 494, 495, 547, 546
214, 391, 392, 444, 443, 495, 496, 548, 547
215, 392, 393, 445, 444, 496, 497, 549, 548
216, 393, 394, 446, 445, 497, 498, 550, 549
217, 394, 395, 447, 446, 498, 499, 551, 550
218, 395, 396, 448, 447, 499, 500, 552, 551
219, 449, 450, 502, 501, 553, 554, 606, 605
220, 450, 451, 503, 502, 554, 555, 607, 606
221, 451, 452, 504, 503, 555, 556, 608, 607
222, 452, 453, 505, 504, 556, 557, 609, 608
223, 453, 454, 506, 505, 557, 558, 610, 609
224, 454, 455, 507, 506, 558, 559, 611, 610
225, 455, 456, 508, 507, 559, 560, 612, 611
226, 456, 457, 509, 508, 560, 561, 613, 612
227, 457, 458, 510, 509, 561, 562, 614, 613
228, 458, 459, 511, 510, 562, 563, 615, 614
229, 459, 460, 512, 511, 563, 564, 616, 615
259, 489, 490, 542, 541, 593, 594, 646, 645
260, 490, 491, 543, 542, 594, 595, 647, 646
261, 491, 492, 544, 543, 595, 596, 648, 647
262, 492, 493, 545, 544, 596, 597, 649, 648
263, 493, 494, 546, 545, 597, 598, 650, 649
264, 494, 495, 547, 546, 598, 599, 651, 650
265, 495, 496, 548, 547, 599, 600, 652, 651
266, 496, 497, 549, 548, 600, 601, 653, 652
267, 497, 498, 550, 549, 601, 602, 654, 653
268, 498, 499, 551, 550, 602, 603, 655, 654
269, 499, 500, 552, 551, 603, 604, 656, 655
270, 553, 554, 606, 605, 657, 658, 710, 709
271, 554, 555, 607, 606, 658, 659, 711, 710
272, 555, 556, 608, 607, 659, 660, 712, 711
273, 556, 557, 609, 608, 660, 661, 713, 712
274, 557, 558, 610, 609, 661, 662, 714, 713
275, 558, 559, 611, 610, 662, 663, 715, 714
276, 559, 560, 612, 611, 663, 664, 716, 715
277, 560, 561, 613, 612, 664, 665, 717, 716
278, 561, 562, 614, 613, 665, 666, 718, 717
279, 562, 563, 615, 614, 666, 667, 719, 718
280, 563, 564, 616, 615, 667, 668, 720, 719
310, 593, 594, 646, 645, 697, 698, 750, 749
311, 594, 595, 647, 646, 698, 699, 751, 750
312, 595, 596, 648, 647, 699, 700, 752, 751
313, 596, 597, 649, 648, 700, 701, 753, 752
314, 597, 598, 650, 649, 701, 702, 754, 753
315, 598, 599, 651, 650, 702, 703, 755, 754
316, 599, 600, 652, 651, 703, 704, 756, 755
317, 600, 601, 653, 652, 704, 705, 757, 756
318, 601, 602, 654, 653, 705, 706, 758, 757
319, 602, 603, 655, 654, 706, 707, 759, 758
320, 603, 604, 656, 655, 707, 708, 760, 759
321, 657, 658, 710, 709, 761, 762, 814, 813
322, 658, 659, 711, 710, 762, 763, 815, 814
323, 659, 660, 712, 711, 763, 764, 816, 815
324, 660, 661, 713, 712, 764, 765, 817, 816
325, 661, 662, 714, 713, 765, 766, 818, 817
326, 662, 663, 715, 714, 766, 767, 819, 818
327, 663, 664, 716, 715, 767, 768, 820, 819
328, 664, 665, 717, 716, 768, 769, 821, 820
329, 665, 666, 718, 717, 769, 770, 822, 821
330, 666, 667, 719, 718, 770, 771, 823, 822
331, 667, 668, 720, 719, 771, 772, 824, 823
361, 697, 698, 750, 749, 801, 802, 854, 853
362, 698, 699, 751, 750, 802, 803, 855, 854
363, 699, 700, 752, 751, 803, 804, 856, 855
364, 700, 701, 753, 752, 804, 805, 857, 856
365, 701, 702, 754, 753, 805, 806, 858, 857
366, 702, 703, 755, 754, 806, 807, 859, 858
367, 703, 704, 756, 755, 807, 808, 860, 859
368, 704, 705, 757, 756, 808, 809, 861, 860
369, 705, 706, 758, 757, 809, 810, 862, 861
370, 706, 707, 759, 758, 810, 811, 863, 862
371, 707, 708, 760, 759, 811, 812, 864, 863
372, 761, 762, 814, 813, 865, 866, 918, 917
373, 762, 763, 815, 814, 866, 867, 919, 918
374, 763, 764, 816, 815, 867, 868, 920, 919
375, 764, 765, 817, 816, 868, 869, 921, 920
376, 765, 766, 818, 817, 869, 870, 922, 921
377, 766, 767, 819, 818, 870, 871, 923, 922
378, 767, 768, 820, 819, 871, 872, 924, 923
379, 768, 769, 821, 820, 872, 873, 925, 924
380, 769, 770, 822, 821, 873, 874, 926, 925
381, 770, 771, 823, 822, 874, 875, 927, 926
382, 771, 772, 824, 823, 875, 876, 928, 927
412, 801, 802, 854, 853, 905, 906, 958, 957
413, 802, 803, 855, 854, 906, 907, 959, 958
414, 803, 804, 856, 855, 907, 908, 960, 959
415, 804, 805, 857, 856, 908, 909, 961, 960
416, 805, 806, 858, 857, 909, 910, 962, 961
417, 806, 807, 859, 858, 910, 911, 963, 962
418, 807, 808, 860, 859, 911, 912, 964, 963
419, 808, 809, 861, 860, 912, 913, 965, 964
420, 809, 810, 862, 861, 913, 914, 966, 965
421, 810, 811, 863, 862, 914, 915, 967, 966
422, 811, 812, 864, 863, 915, 916, 968, 967
423, 865, 866, 918, 917, 969, 970, 1022, 1021
424, 866, 867, 919, 918, 970, 971, 1023, 1022
425, 867, 868, 920, 919, 971, 972, 1024, 1023
426, 868, 869, 921, 920, 972, 973, 1025, 1024
427, 869, 870, 922, 921, 973, 974, 1026, 1025
428, 870, 871, 923, 922, 974, 975, 1027, 1026
429, 871, 872, 924, 923, 975, 976, 1028, 1027
430, 872, 873, 925, 924, 976, 977, 1029, 1028
431, 873, 874, 926, 925, 977, 978, 1030, 1029
432, 874, 875, 927, 926, 978, 979, 1031, 1030
433, 875, 876, 928, 927, 979, 980, 1032, 1031
463, 905, 906, 958, 957, 1009, 1010, 1062, 1061
464, 906, 907, 959, 958, 1010, 1011, 1063, 1062
465, 907, 908, 960, 959, 1011, 1012, 1064, 1063
466, 908, 909, 961, 960, 1012, 1013, 1065, 1064
467, 909, 910, 962, 961, 1013, 1014, 1066, 1065
468, 910, 911, 963, 962, 1014, 1015, 1067, 1066
469, 911, 912, 964, 963, 1015, 1016, 1068, 1067
470, 912, 913, 965, 964, 1016, 1017, 1069, 1068
471, 913, 914, 966, 965, 1017, 1018, 1070, 1069
472, 914, 915, 967, 966, 1018, 1019, 1071, 1070
473, 915, 916, 968, 967, 1019, 1020, 1072, 1071
474, 969, 970, 1022, 1021, 1073, 1074, 1126, 1125
475, 970, 971, 1023, 1022, 1074, 1075, 1127, 1126
476, 971, 972, 1024, 1023, 1075, 1076, 1128, 1127
477, 972, 973, 1025, 1024, 1076, 1077, 1129, 1128
478, 973, 974, 1026, 1025, 1077, 1078, 1130, 1129
479, 974, 975, 1027, 1026, 1078, 1079, 1131, 1130
480, 975, 976, 1028, 1027, 1079, 1080, 1132, 1131
481, 976, 977, 1029, 1028, 1080, 1081, 1133, 1132
482, 977, 978, 1030, 1029, 1081, 1082, 1134, 1133
483, 978, 979, 1031, 1030, 1082, 1083, 1135, 1134
484, 979, 980, 1032, 1031, 1083, 1084, 1136, 1135
514, 1009, 1010, 1062, 1061, 1113, 1114, 1166, 1165
515, 1010, 1011, 1063, 1062, 1114, 1115, 1167, 1166
516, 1011, 1012, 1064, 1063, 1115, 1116, 1168, 1167
517, 1012, 1013, 1065, 1064, 1116, 1117, 1169, 1168
518, 1013, 1014, 1066, 1065, 1117, 1118, 1170, 1169
519, 1014, 1015, 1067, 1066, 1118, 1119, 1171, 1170
520, 1015, 1016, 1068, 1067, 1119, 1120, 1172, 1171
521, 1016, 1017, 1069, 1068, 1120, 1121, 1173, 1172
522, 1017, 1018, 1070, 1069, 1121, 1122, 1174, 1173
523, 1018, 1019, 1071, 1070, 1122, 1123, 1175, 1174
524, 1019, 1020, 1072, 1071, 1123, 1124, 1176, 1175
525, 1073, 1074, 1126, 1125, 1177, 1178, 1230, 1229
526, 1074, 1075, 1127, 1126, 1178, 1179, 1231, 1230
527, 1075, 1076, 1128, 1127, 1179, 1180, 1232, 1231
528, 1076, 1077, 1129, 1128, 1180, 1181, 1233, 1232
529, 1077, 1078, 1130, 1129, 1181, 1182, 1234, 1233
530, 1078, 1079, 1131, 1130, 1182, 1183, 1235, 1234
531, 1079, 1080, 1132, 1131, 1183, 1184, 1236, 1235
532, 1080, 1081, 1133, 1132, 1184, 1185, 1237, 1236
533, 1081, 1082, 1134, 1133, 1185, 1186, 1238, 1237
534, 1082, 1083, 1135, 1134, 1186, 1187, 1239, 1238
535, 1083, 1084, 1136, 1135, 1187, 1188, 1240, 1239
565, 1113, 1114, 1166, 1165, 1217, 1218, 1270, 1269
566, 1114, 1115, 1167, 1166, 1218, 1219, 1271, 1270
567, 1115, 1116, 1168, 1167, 1219, 1220, 1272, 1271
568, 1116, 1117, 1169, 1168, 1220, 1221, 1273, 1272
569, 1117, 1118, 1170, 1169, 1221, 1222, 1274, 1273
570, 1118, 1119, 1171, 1170, 1222, 1223, 1275, 1274
571, 1119, 1120, 1172, 1171, 1223, 1224, 1276, 1275
572, 1120, 1121, 1173, 1172, 1224, 1225, 1277, 1276
573, 1121, 1122, 1174, 1173, 1225, 1226, 1278, 1277
574, 1122, 1123, 1175, 1174, 1226, 1227, 1279, 1278
575, 1123, 1124, 1176, 1175, 1227, 1228, 1280, 1279
576, 1177, 1178, 1230, 1229, 1281, 1282, 1334, 1333
577, 1178, 1179, 1231, 1230, 1282, 1283, 1335, 1334
578, 1179, 1180, 1232, 1231, 1283, 1284, 1336, 1335
579, 1180, 1181, 1233, 1232, 1284, 1285, 1337, 1336
580, 1181, 1182, 1234, 1233, 1285, 1286, 1338, 1337
581, 1182, 1183, 1235, 1234, 1286, 1287, 1339, 1338
582, 1183, 1184, 1236, 1235, 1287, 1288, 1340, 1339
583, 1184, 1185, 1237, 1236, 1288, 1289, 1341, 1340
584, 1185, 1186, 1238, 1237, 1289, 1290, 1342, 1341
585, 1186, 1187, 1239, 1238, 1290, 1291, 1343, 1342
586, 1187, 1188, 1240, 1239, 1291, 1292, 1344, 1343
616, 1217, 1218, 1270, 1269, 1321, 1322, 1374, 1373
617, 1218, 1219, 1271, 1270, 1322, 1323, 1375, 1374
618, 1219, 1220, 1272, 1271, 1323, 1324, 1376, 1375
619, 1220, 1221, 1273, 1272, 1324, 1325, 1377, 1376
620, 1221, 1222, 1274, 1273, 1325, 1326, 1378, 1377
621, 1222, 1223, 1275, 1274, 1326, 1327, 1379, 1378
622, 1223, 1224, 1276, 1275, 1327, 1328, 1380, 1379
623, 1224, 1225, 1277, 1276, 1328, 1329, 1381, 1380
624, 1225, 1226, 1278, 1277, 1329, 1330, 1382, 1381
625, 1226, 1227, 1279, 1278, 1330, 1331, 1383, 1382
626, 1227, 1228, 1280, 1279, 1331, 1332, 1384, 1383
627, 1281, 1282, 1334, 1333, 1385, 1386, 1438, 1437
628, 1282, 1283, 1335, 1334, 1386, 1387, 1439, 1438
629, 1283, 1284, 1336, 1335, 1387, 1388, 1440, 1439
630, 1284, 1285, 1337, 1336, 1388, 1389, 1441, 1440
631, 1285, 1286, 1338, 1337, 1389, 1390, 1442, 1441
632, 1286, 1287, 1339, 1338, 1390, 1391, 1443, 1442
633, 1287, 1288, 1340, 1339, 1391, 1392, 1444, 1443
634, 1288, 1289, 1341, 1340, 1392, 1393, 1445, 1444
635, 1289, 1290, 1342, 1341, 1393, 1394, 1446, 1445
636, 1290, 1291, 1343, 1342, 1394, 1395, 1447, 1446
637, 1291, 1292, 1344, 1343, 1395, 1396, 1448, 1447
667, 1321, 1322, 1374, 1373, 1425, 1426, 1478, 1477
668, 1322, 1323, 1375, 1374, 1426, 1427, 1479, 1478
669, 1323, 1324, 1376, 1375, 1427, 1428, 1480, 1479
670, 1324, 1325, 1377, 1376, 1428, 1429, 1481, 1480
671, 1325, 1326, 1378, 1377, 1429, 1430, 1482, 1481
672, 1326, 1327, 1379, 1378, 1430, 1431, 1483, 1482
673, 1327, 1328, 1380, 1379, 1431, 1432, 1484, 1483
674, 1328, 1329, 1381, 1380, 1432, 1433, 1485, 1484
675, 1329, 1330, 1382, 1381, 1433, 1434, 1486, 1485
676, 1330, 1331, 1383, 1382, 1434, 1435, 1487, 1486
677, 1331, 1332, 1384, 1383, 1435, 1436, 1488, 1487
678, 1385, 1386, 1438, 1437, 1489, 1490, 1542, 1541
679, 1386, 1387, 1439, 1438, 1490, 1491, 1543, 1542
680, 1387, 1388, 1440, 1439, 1491, 1492, 1544, 1543
681, 1388, 1389, 1441, 1440, 1492, 1493, 1545, 1544
682, 1389, 1390, 1442, 1441, 1493, 1494, 1546, 1545
683, 1390, 1391, 1443, 1442, 1494, 1495, 1547, 1546
684, 1391, 1392, 1444, 1443, 1495, 1496, 1548, 1547
685, 1392, 1393, 1445, 1444, 1496, 1497, 1549, 1548
686, 1393, 1394, 1446, 1445, 1497, 1498, 1550, 1549
687, 1394, 1395, 1447, 1446, 1498, 1499, 1551, 1550
688, 1395, 1396, 1448, 1447, 1499, 1500, 1552, 1551
718, 1425, 1426, 1478, 1477, 1529, 1530, 1582, 1581
719, 1426, 1427, 1479, 1478, 1530, 1531, 1583, 1582
720, 1427, 1428, 1480, 1479, 1531, 1532, 1584, 1583
721, 1428, 1429, 1481, 1480, 1532, 1533, 1585, 1584
722, 1429, 1430, 1482, 1481, 1533, 1534, 1586, 1585
723, 1430, 1431, 1483, 1482, 1534, 1535, 1587, 1586
724, 1431, 1432, 1484, 1483, 1535, 1536, 1588, 1587
725, 1432, 1433, 1485, 1484, 1536, 1537, 1589, 1588
726, 1433, 1434, 1486, 1485, 1537, 1538, 1590, 1589
727, 1434, 1435, 1487, 1486, 1538, 1539, 1591, 1590
728, 1435, 1436, 1488, 1487, 1539, 1540, 1592, 1591
729, 1489, 1490, 1542, 1541, 1593, 1594, 1646, 1645
730, 1490, 1491, 1543, 1542, 1594, 1595, 1647, 1646
731, 1491, 1492, 1544, 1543, 1595, 1596, 1648, 1647
732, 1492, 1493, 1545, 1544, 1596, 1597, 1649, 1648
733, 1493, 1494, 1546, 1545, 1597, 1598, 1650, 1649
734, 1494, 1495, 1547, 1546, 1598, 1599, 1651, 1650
735, 1495, 1496, 1548, 1547, 1599, 1600, 1652, 1651
736, 1496, 1497, 1549, 1548, 1600, 1601, 1653, 1652
737, 1497, 1498, 1550, 1549, 1601, 1602, 1654, 1653
738, 1498, 1499, 1551, 1550, 1602, 1603, 1655, 1654
739, 1499, 1500, 1552, 1551, 1603, 1604, 1656, 1655
769, 1529, 1530, 1582, 1581, 1633, 1634, 1686, 1685
770, 1530, 1531, 1583, 1582, 1634, 1635, 1687, 1686
771, 1531, 1532, 1584, 1583, 1635, 1636, 1688, 1687
772, 1532, 1533, 1585, 1584, 1636, 1637, 1689, 1688
773, 1533, 1534, 1586, 1585, 1637, 1638, 1690, 1689
774, 1534, 1535, 1587, 1586, 1638, 1639, 1691, 1690
775, 1535, 1536, 1588, 1587, 1639, 1640, 1692, 1691
776, 1536, 1537, 1589, 1588, 1640, 1641, 1693, 1692
777, 1537, 1538, 1590, 1589, 1641, 1642, 1694, 1693
778, 1538, 1539, 1591, 1590, 1642, 1643, 1695, 1694
779, 1539, 1540, 1592, 1591, 1643, 1644, 1696, 1695
780, 1593, 1594, 1646, 1645, 1697, 1698, 1750, 1749
781, 1594, 1595, 1647, 1646, 1698, 1699, 1751, 1750
782, 1595, 1596, 1648, 1647, 1699, 1700, 1752, 1751
783, 1596, 1597, 1649, 1648, 1700, 1701, 1753, 1752
784, 1597, 1598, 1650, 1649, 1701, 1702, 1754, 1753
785, 1598, 1599, 1651, 1650, 1702, 1703, 1755, 1754
786, 1599, 1600, 1652, 1651, 1703, 1704, 1756, 1755
787, 1600, 1601, 1653, 1652, 1704, 1705, 1757, 1756
788, 1601, 1602, 1654, 1653, 1705, 1706, 1758, 1757
789, 1602, 1603, 1655, 1654, 1706, 1707, 1759, 1758
790, 1603, 1604, 1656, 1655, 1707, 1708, 1760, 1759
820, 1633, 1634, 1686, 1685, 1737, 1738, 1790, 1789
821, 1634, 1635, 1687, 1686, 1738, 1739, 1791, 1790
822, 1635, 1636, 1688, 1687, 1739, 1740, 1792, 1791
823, 1636, 1637, 1689, 1688, 1740, 1741, 1793, 1792
824, 1637, 1638, 1690, 1689, 1741, 1742, 1794, 1793
825, 1638, 1639, 1691, 1690, 1742, 1743, 1795, 1794
826, 1639, 1640, 1692, 1691, 1743, 1744, 1796, 1795
827, 1640, 1641, 1693, 1692, 1744, 1745, 1797, 1796
828, 1641, 1642, 1694, 1693, 1745, 1746, 1798, 1797
829, 1642, 1643, 1695, 1694, 1746, 1747, 1799, 1798
830, 1643, 1644, 1696, 1695, 1747, 1748, 1800, 1799
831, 1697, 1698, 1750, 1749, 1801, 1802, 1854, 1853
832, 1698, 1699, 1751, 1750, 1802, 1803, 1855, 1854
833, 1699, 1700, 1752, 1751, 1803, 1804, 1856, 1855
834, 1700, 1701, 1753, 1752, 1804, 1805, 1857, 1856
835, 1701, 1702, 1754, 1753, 1805, 1806, 1858, 1857
836, 1702, 1703, 1755, 1754, 1806, 1807, 1859, 1858
837, 1703, 1704, 1756, 1755, 1807, 1808, 1860, 1859
838, 1704, 1705, 1757, 1756, 1808, 1809, 1861, 1860
839, 1705, 1706, 1758, 1757, 1809, 1810, 1862, 1861
840, 1706, 1707, 1759, 1758, 1810, 1811, 1863, 1862
841, 1707, 1708, 1760, 1759, 1811, 1812, 1864, 1863
871, 1737, 1738, 1790, 1789, 1841, 1842, 1894, 1893
872, 1738, 1739, 1791, 1790, 1842, 1843, 1895, 1894
873, 1739, 1740, 1792, 1791, 1843, 1844, 1896, 1895
874, 1740, 1741, 1793, 1792, 1844, 1845, 1897, 1896
875, 1741, 1742, 1794, 1793, 1845, 1846, 1898, 1897
876, 1742, 1743, 1795, 1794, 1846, 1847, 1899, 1898
877, 1743, 1744, 1796, 1795, 1847, 1848, 1900, 1899
878, 1744, 1745, 1797, 1796, 1848, 1849, 1901, 1900
879, 1745, 1746, 1798, 1797, 1849, 1850, 1902, 1901
880, 1746, 1747, 1799, 1798, 1850, 1851, 1903, 1902
881, 1747, 1748, 1800, 1799, 1851, 1852, 1904, 1903
882, 1801, 1802, 1854, 1853, 1905, 1906, 1958, 1957
883, 1802, 1803, 1855, 1854, 1906, 1907, 1959, 1958
884, 1803, 1804, 1856, 1855, 1907, 1908, 1960, 1959
885, 1804, 1805, 1857, 1856, 1908, 1909, 1961, 1960
886, 1805, 1806, 1858, 1857, 1909, 1910, 1962, 1961
887, 1806, 1807, 1859, 1858, 1910, 1911, 1963, 1962
888, 1807, 1808, 1860, 1859, 1911, 1912, 1964, 1963
889, 1808, 1809, 1861, 1860, 1912, 1913, 1965, 1964
890, 1809, 1810, 1862, 1861, 1913, 1914, 1966, 1965
891, 1810, 1811, 1863, 1862, 1914, 1915, 1967, 1966
892, 1811, 1812, 1864, 1863, 1915, 1916, 1968, 1967
922, 1841, 1842, 1894, 1893, 1945, 1946, 1998, 1997
923, 1842, 1843, 1895, 1894, 1946, 1947, 1999, 1998
924, 1843, 1844, 1896, 1895, 1947, 1948, 2000, 1999
925, 1844, 1845, 1897, 1896, 1948, 1949, 2001, 2000
926, 1845, 1846, 1898, 1897, 1949, 1950, 2002, 2001
927, 1846, 1847, 1899, 1898, 1950, 1951, 2003, 2002
928, 1847, 1848, 1900, 1899, 1951, 1952, 2004, 2003
929, 1848, 1849, 1901, 1900, 1952, 1953, 2005, 2004
930, 1849, 1850, 1902, 1901, 1953, 1954, 2006, 2005
931, 1850, 1851, 1903, 1902, 1954, 1955, 2007, 2006
932, 1851, 1852, 1904, 1903, 1955, 1956, 2008, 2007
933, 1905, 1906, 1958, 1957, 2009, 2010, 2062, 2061
934, 1906, 1907, 1959, 1958, 2010, 2011, 2063, 2062
935, 1907, 1908, 1960, 1959, 2011, 2012, 2064, 2063
936, 1908, 1909, 1961, 1960, 2012, 2013, 2065, 2064
937, 1909, 1910, 1962, 1961, 2013, 2014, 2066, 2065
938, 1910, 1911, 1963, 1962, 2014, 2015, 2067, 2066
939, 1911, 1912, 1964, 1963, 2015, 2016, 2068, 2067
940, 1912, 1913, 1965, 1964, 2016, 2017, 2069, 2068
941, 1913, 1914, 1966, 1965, 2017, 2018, 2070, 2069
942, 1914, 1915, 1967, 1966, 2018, 2019, 2071, 2070
943, 1915, 1916, 1968, 1967, 2019, 2020, 2072, 2071
973, 1945, 1946, 1998, 1997, 2049, 2050, 2102, 2101
974, 1946, 1947, 1999, 1998, 2050, 2051, 2103, 2102
975, 1947, 1948, 2000, 1999, 2051, 2052, 2104, 2103
976, 1948, 1949, 2001, 2000, 2052, 2053, 2105, 2104
977, 1949, 1950, 2002, 2001, 2053, 2054, 2106, 2105
978, 1950, 1951, 2003, 2002, 2054, 2055, 2107, 2106
979, 1951, 1952, 2004, 2003, 2055, 2056, 2108, 2107
980, 1952, 1953, 2005, 2004, 2056, 2057, 2109, 2108
981, 1953, 1954, 2006, 2005, 2057, 2058, 2110, 2109
982, 1954, 1955, 2007, 2006, 2058, 2059, 2111, 2110
983, 1955, 1956, 2008, 2007, 2059, 2060, 2112, 2111
984, 2009, 2010, 2062, 2061, 2113, 2114, 2166, 2165
985, 2010, 2011, 2063, 2062, 2114, 2115, 2167, 2166
986, 2011, 2012, 2064, 2063, 2115, 2116, 2168, 2167
987, 2012, 2013, 2065, 2064, 2116, 2117, 2169, 2168
988, 2013, 2014, 2066, 2065, 2117, 2118, 2170, 2169
989, 2014, 2015, 2067, 2066, 2118, 2119, 2171, 2170
990, 2015, 2016, 2068, 2067, 2119, 2120, 2172, 2171
991, 2016, 2017, 2069, 2068, 2120, 2121, 2173, 2172
992, 2017, 2018, 2070, 2069, 2121, 2122, 2174, 2173
993, 2018, 2019, 2071, 2070, 2122, 2123, 2175, 2174
994, 2019, 2020, 2072, 2071, 2123, 2124, 2176, 2175
1024, 2049, 2050, 2102, 2101, 2153, 2154, 2206, 2205
1025, 2050, 2051, 2103, 2102, 2154, 2155, 2207, 2206
1026, 2051, 2052, 2104, 2103, 2155, 2156, 2208, 2207
1027, 2052, 2053, 2105, 2104, 2156, 2157, 2209, 2208
1028, 2053, 2054, 2106, 2105, 2157, 2158, 2210, 2209
1029, 2054, 2055, 2107, 2106, 2158, 2159, 2211, 2210
1030, 2055, 2056, 2108, 2107, 2159, 2160, 2212, 2211
1031, 2056, 2057, 2109, 2108, 2160, 2161, 2213, 2212
1032, 2057, 2058, 2110, 2109, 2161, 2162, 2214, 2213
1033, 2058, 2059, 2111, 2110, 2162, 2163, 2215, 2214
1034, 2059, 2060, 2112, 2111, 2163, 2164, 2216, 2215
1035, 2113, 2114, 2166, 2165, 2217, 2218, 2270, 2269
1036, 2114, 2115, 2167, 2166, 2218, 2219, 2271, 2270
1037, 2115, 2116, 2168, 2167, 2219, 2220, 2272, 2271
1038, 2116, 2117, 2169, 2168, 2220, 2221, 2273, 2272
1039, 2117, 2118, 2170, 2169, 2221, 2222, 2274, 2273
1040, 2118, 2119, 2171, 2170, 2222, 2223, 2275, 2274
1041, 2119, 2120, 2172, 2171, 2223, 2224, 2276, 2275
1042, 2120, 2121, 2173, 2172, 2224, 2225, 2277, 2276
1043, 2121, 2122, 2174, 2173, 2225, 2226, 2278, 2277
1044, 2122, 2123, 2175, 2174, 2226, 2227, 2279, 2278
1045, 2123, 2124, 2176, 2175, 2227, 2228, 2280, 2279
1075, 2153, 2154, 2206, 2205, 2257, 2258, 2310, 2309
1076, 2154, 2155, 2207, 2206, 2258, 2259, 2311, 2310
1077, 2155, 2156, 2208, 2207, 2259, 2260, 2312, 2311
1078, 2156, 2157, 2209, 2208, 2260, 2261, 2313, 2312
1079, 2157, 2158, 2210, 2209, 2261, 2262, 2314, 2313
1080, 2158, 2159, 2211, 2210, 2262, 2263, 2315, 2314
1081, 2159, 2160, 2212, 2211, 2263, 2264, 2316, 2315
1082, 2160, 2161, 2213, 2212, 2264, 2265, 2317, 2316
1083, 2161, 2162, 2214, 2213, 2265, 2266, 2318, 2317
1084, 2162, 2163, 2215, 2214, 2266, 2267, 2319, 2318
1085, 2163, 2164, 2216, 2215, 2267, 2268, 2320, 2319
1086, 2217, 2218, 2270, 2269, 2321, 2322, 2374, 2373
1087, 2218, 2219, 2271, 2270, 2322, 2323, 2375, 2374
1088, 2219, 2220, 2272, 2271, 2323, 2324, 2376, 2375
1089, 2220, 2221, 2273, 2272, 2324, 2325, 2377, 2376
1090, 2221, 2222, 2274, 2273, 2325, 2326, 2378, 2377
1091, 2222, 2223, 2275, 2274, 2326, 2327, 2379, 2378
1092, 2223, 2224, 2276, 2275, 2327, 2328, 2380, 2379
1093, 2224, 2225, 2277, 2276, 2328, 2329, 2381, 2380
1094, 2225, 2226, 2278, 2277, 2329, 2330, 2382, 2381
1095, 2226, 2227, 2279, 2278, 2330, 2331, 2383, 2382
1096, 2227, 2228, 2280, 2279, 2331, 2332, 2384, 2383
1126, 2257, 2258, 2310, 2309, 2361, 2362, 2414, 2413
1127, 2258, 2259, 2311, 2310, 2362, 2363, 2415, 2414
1128, 2259, 2260, 2312, 2311, 2363, 2364, 2416, 2415
1129, 2260, 2261, 2313, 2312, 2364, 2365, 2417, 2416
1130, 2261, 2262, 2314, 2313, 2365, 2366, 2418, 2417
1131, 2262, 2263, 2315, 2314, 2366, 2367, 2419, 2418
1132, 2263, 2264, 2316, 2315, 2367, 2368, 2420, 2419
1133, 2264, 2265, 2317, 2316, 2368, 2369, 2421, 2420
1134, 2265, 2266, 2318, 2317, 2369, 2370, 2422, 2421
1135, 2266, 2267, 2319, 2318, 2370, 2371, 2423, 2422
1136, 2267, 2268, 2320, 2319, 2371, 2372, 2424, 2423
1137, 2321, 2322, 2374, 2373, 2425, 2426, 2478, 2477
1138, 2322, 2323, 2375, 2374, 2426, 2427, 2479, 2478
1139, 2323, 2324, 2376, 2375, 2427, 2428, 2480, 2479
1140, 2324, 2325, 2377, 2376, 2428, 2429, 2481, 2480
1141, 2325, 2326, 2378, 2377, 2429, 2430, 2482, 2481
1142, 2326, 2327, 2379, 2378, 2430, 2431, 2483, 2482
1143, 2327, 2328, 2380, 2379, 2431, 2432, 2484, 2483
1144, 2328, 2329, 2381, 2380, 2432, 2433, 2485, 2484
1145, 2329, 2330, 2382, 2381, 2433, 2434, 2486, 2485
1146, 2330, 2331, 2383, 2382, 2434, 2435, 2487, 2486
1147, 2331, 2332, 2384, 2383, 2435, 2436, 2488, 2487
1177, 2361, 2362, 2414, 2413, 2465, 2466, 2518, 2517
1178, 2362, 2363, 2415, 2414, 2466, 2467, 2519, 2518
1179, 2363, 2364, 2416, 2415, 2467, 2468, 2520, 2519
1180, 2364, 2365, 2417, 2416, 2468, 2469, 2521, 2520
1181, 2365, 2366, 2418, 2417, 2469, 2470, 2522, 2521
1182, 2366, 2367, 2419, 2418, 2470, 2471, 2523, 2522
1183, 2367, 2368, 2420, 2419, 2471, 2472, 2524, 2523
1184, 2368, 2369, 2421, 2420, 2472, 2473, 2525, 2524
1185, 2369, 2370, 2422, 2421, 2473, 2474, 2526, 2525
1186, 2370, 2371, 2423, 2422, 2474, 2475, 2527, 2526
1187, 2371, 2372, 2424, 2423, 2475, 2476, 2528, 2527
1188, 2425, 2426, 2478, 2477, 2529, 2530, 2582, 2581
1189, 2426, 2427, 2479, 2478, 2530, 2531, 2583, 2582
1190, 2427, 2428, 2480, 2479, 2531, 2532, 2584, 2583
1191, 2428, 2429, 2481, 2480, 2532, 2533, 2585, 2584
1192, 2429, 2430, 2482, 2481, 2533, 2534, 2586, 2585
1193, 2430, 2431, 2483, 2482, 2534, 2535, 2587, 2586
1194, 2431, 2432, 2484, 2483, 2535, 2536, 2588, 2587
1195, 2432, 2433, 2485, 2484, 2536, 2537, 2589, 2588
1196, 2433, 2434, 2486, 2485, 2537, 2538, 2590, 2589
1197, 2434, 2435, 2487, 2486, 2538, 2539, 2591, 2590
1198, 2435, 2436, 2488, 2487, 2539, 2540, 2592, 2591
1228, 2465, 2466, 2518, 2517, 2569, 2570, 2622, 2621
1229, 2466, 2467, 2519, 2518, 2570, 2571, 2623, 2622
1230, 2467, 2468, 2520, 2519, 2571, 2572, 2624, 2623
1231, 2468, 2469, 2521, 2520, 2572, 2573, 2625, 2624
1232, 2469, 2470, 2522, 2521, 2573, 2574, 2626, 2625
1233, 2470, 2471, 2523, 2522, 2574, 2575, 2627, 2626
1234, 2471, 2472, 2524, 2523, 2575, 2576, 2628, 2627
1235, 2472, 2473, 2525, 2524, 2576, 2577, 2629, 2628
1236, 2473, 2474, 2526, 2525, 2577, 2578, 2630, 2629
1237, 2474, 2475, 2527, 2526, 2578, 2579, 2631, 2630
1238, 2475, 2476, 2528, 2527, 2579, 2580, 2632, 2631
1239, 2529, 2530, 2582, 2581, 2633, 2634, 2686, 2685
1240, 2530, 2531, 2583, 2582, 2634, 2635, 2687, 2686
1241, 2531, 2532, 2584, 2583, 2635, 2636, 2688, 2687
1242, 2532, 2533, 2585, 2584, 2636, 2637, 2689, 2688
1243, 2533, 2534, 2586, 2585, 2637, 2638, 2690, 2689
1244, 2534, 2535, 2587, 2586, 2638, 2639, 2691, 2690
1245, 2535, 2536, 2588, 2587, 2639, 2640, 2692, 2691
1246, 2536, 2537, 2589, 2588, 2640, 2641, 2693, 2692
1247, 2537, 2538, 2590, 2589, 2641, 2642, 2694, 2693
1248, 2538, 2539, 2591, 2590, 2642, 2643, 2695, 2694
1249, 2539, 2540, 2592, 2591, 2643, 2644, 2696, 2695
1279, 2569, 2570, 2622, 2621, 2673, 2674, 2726, 2725
1280, 2570, 2571, 2623, 2622, 2674, 2675, 2727, 2726
1281, 2571, 2572, 2624, 2623, 2675, 2676, 2728, 2727
1282, 2572, 2573, 2625, 2624, 2676, 2677, 2729, 2728
1283, 2573, 2574, 2626, 2625, 2677, 2678, 2730, 2729
1284, 2574, 2575, 2627, 2626, 2678, 2679, 2731, 2730
1285, 2575, 2576, 2628, 2627, 2679, 2680, 2732, 2731
1286, 2576, 2577, 2629, 2628, 2680, 2681, 2733, 2732
1287, 2577, 2578, 2630, 2629, 2681, 2682, 2734, 2733
1288, 2578, 2579, 2631, 2630, 2682, 2683, 2735, 2734
1289, 2579, 2580, 2632, 2631, 2683, 2684, 2736, 2735
1290, 2633, 2634, 2686, 2685, 2737, 2738, 2790, 2789
1291, 2634, 2635, 2687, 2686, 2738, 2739, 2791, 2790
1292, 2635, 2636, 2688, 2687, 2739, 2740, 2792, 2791
1293, 2636, 2637, 2689, 2688, 2740, 2741, 2793, 2792
1294, 2637, 2638, 2690, 2689, 2741, 2742, 2794, 2793
1295, 2638, 2639, 2691, 2690, 2742, 2743, 2795, 2794
1296, 2639, 2640, 2692, 2691, 2743, 2744, 2796, 2795
1297, 2640, 2641, 2693, 2692, 2744, 2745, 2797, 2796
1298, 2641, 2642, 2694, 2693, 2745, 2746, 2798, 2797
1299, 2642, 2643, 2695, 2694, 2746, 2747, 2799, 2798
1300, 2643, 2644, 2696, 2695, 2747, 2748, 2800, 2799
1330, 2673, 2674, 2726, 2725, 2777, 2778, 2830, 2829
1331, 2674, 2675, 2727, 2726, 2778, 2779, 2831, 2830
1332, 2675, 2676, 2728, 2727, 2779, 2780, 2832, 2831
1333, 2676, 2677, 2729, 2728, 2780, 2781, 2833, 2832
1334, 2677, 2678, 2730, 2729, 2781, 2782, 2834, 2833
1335, 2678, 2679, 2731, 2730, 2782, 2783, 2835, 2834
1336, 2679, 2680, 2732, 2731, 2783, 2784, 2836, 2835
1337, 2680, 2681, 2733, 2732, 2784, 2785, 2837, 2836
1338, 2681, 2682, 2734, 2733, 2785, 2786, 2838, 2837
1339, 2682, 2683, 2735, 2734, 2786, 2787, 2839, 2838
1340, 2683, 2684, 2736, 2735, 2787, 2788, 2840, 2839
1341, 2737, 2738, 2790, 2789, 2841, 2842, 2894, 2893
1342, 2738, 2739, 2791, 2790, 2842, 2843, 2895, 2894
1343, 2739, 2740, 2792, 2791, 2843, 2844, 2896, 2895
1344, 2740, 2741, 2793, 2792, 2844, 2845, 2897, 2896
1345, 2741, 2742, 2794, 2793, 2845, 2846, 2898, 2897
1346, 2742, 2743, 2795, 2794, 2846, 2847, 2899, 2898
1347, 2743, 2744, 2796, 2795, 2847, 2848, 2900, 2899
1348, 2744, 2745, 2797, 2796, 2848, 2849, 2901, 2900
1349, 2745, 2746, 2798, 2797, 2849, 2850, 2902, 2901
1350, 2746, 2747, 2799, 2798, 2850, 2851, 2903, 2902
1351, 2747, 2748, 2800, 2799, 2851, 2852, 2904, 2903
1381, 2777, 2778, 2830, 2829, 2881, 2882, 2934, 2933
1382, 2778, 2779, 2831, 2830, 2882, 2883, 2935, 2934
1383, 2779, 2780, 2832, 2831, 2883, 2884, 2936, 2935
1384, 2780, 2781, 2833, 2832, 2884, 2885, 2937, 2936
1385, 2781, 2782, 2834, 2833, 2885, 2886, 2938, 2937
1386, 2782, 2783, 2835, 2834, 2886, 2887, 2939, 2938
1387, 2783, 2784, 2836, 2835, 2887, 2888, 2940, 2939
1388, 2784, 2785, 2837, 2836, 2888, 2889, 2941, 2940
1389, 2785, 2786, 2838, 2837, 2889, 2890, 2942, 2941
1390, 2786, 2787, 2839, 2838, 2890, 2891, 2943, 2942
1391, 2787, 2788, 2840, 2839, 2891, 2892, 2944, 2943
1392, 2841, 2842, 2894, 2893, 2945, 2946, 2998, 2997
1393, 2842, 2843, 2895, 2894, 2946, 2947, 2999, 2998
1394, 2843, 2844, 2896, 2895, 2947, 2948, 3000, 2999
1395, 2844, 2845, 2897, 2896, 2948, 2949, 3001, 3000
1396, 2845, 2846, 2898, 2897, 2949, 2950, 3002, 3001
1397, 2846, 2847, 2899, 2898, 2950, 2951, 3003, 3002
1398, 2847, 2848, 2900, 2899, 2951, 2952, 3004, 3003
1399, 2848, 2849, 2901, 2900, 2952, 2953, 3005, 3004
1400, 2849, 2850, 2902, 2901, 2953, 2954, 3006, 3005
1401, 2850, 2851, 2903, 2902, 2954, 2955, 3007, 3006
1402, 2851, 2852, 2904, 2903, 2955, 2956, 3008, 3007
1432, 2881, 2882, 2934, 2933, 2985, 2986, 3038, 3037
1433, 2882, 2883, 2935, 2934, 2986, 2987, 3039, 3038
1434, 2883, 2884, 2936, 2935, 2987, 2988, 3040, 3039
1435, 2884, 2885, 2937, 2936, 2988, 2989, 3041, 3040
1436, 2885, 2886, 2938, 2937, 2989, 2990, 3042, 3041
1437, 2886, 2887, 2939, 2938, 2990, 2991, 3043, 3042
1438, 2887, 2888, 2940, 2939, 2991, 2992, 3044, 3043
1439, 2888, 2889, 2941, 2940, 2992, 2993, 3045, 3044
1440, 2889, 2890, 2942, 2941, 2993, 2994, 3046, 3045
1441, 2890, 2891, 2943, 2942, 2994, 2995, 3047, 3046
1442, 2891, 2892, 2944, 2943, 2995, 2996, 3048, 3047
*ELEMENT, TYPE=U1, ELSET=EPSUB
128, 252, 253, 305, 304, 356, 357, 409, 408
129, 253, 254, 306, 305, 357, 358, 410, 409
130, 254, 255, 307, 306, 358, 359, 411, 410
131, 255, 256, 308, 307, 359, 360, 412, 411
132, 256, 257, 309, 308, 360, 361, 413, 412
133, 257, 258, 310, 309, 361, 362, 414, 413
134, 258, 259, 311, 310, 362, 363, 415, 414
135, 259, 260, 312, 311, 363, 364, 416, 415
136, 260, 261, 313, 312, 364, 365, 417, 416
137, 261, 262, 314, 313, 365, 366, 418, 417
138, 262, 263, 315, 314, 366, 367, 419, 418
139, 263, 264, 316, 315, 367, 368, 420, 419
140, 264, 265, 317, 316, 368, 369, 421, 420
141, 265, 266, 318, 317, 369, 370, 422, 421
142, 266, 267, 319, 318, 370, 371, 423, 422
143, 267, 268, 320, 319, 371, 372, 424, 423
144, 268, 269, 321, 320, 372, 373, 425, 424
145, 269, 270, 322, 321, 373, 374, 426, 425
146, 270, 271, 323, 322, 374, 375, 427, 426
147, 271, 272, 324, 323, 375, 376, 428, 427
148, 272, 273, 325, 324, 376, 377, 429, 428
149, 273, 274, 326, 325, 377, 378, 430, 429
150, 274, 275, 327, 326, 378, 379, 431, 430
151, 275, 276, 328, 327, 379, 380, 432, 431
152, 276, 277, 329, 328, 380, 381, 433, 432
153, 277, 278, 330, 329, 381, 382, 434, 433
154, 278, 279, 331, 330, 382, 383, 435, 434
155, 279, 280, 332, 331, 383, 384, 436, 435
156, 280, 281, 333, 332, 384, 385, 437, 436
179, 356, 357, 409, 408, 460, 461, 513, 512
180, 357, 358, 410, 409, 461, 462, 514, 513
181, 358, 359, 411, 410, 462, 463, 515, 514
182, 359, 360, 412, 411, 463, 464, 516, 515
183, 360, 361, 413, 412, 464, 465, 517, 516
184, 361, 362, 414, 413, 465, 466, 518, 517
185, 362, 363, 415, 414, 466, 467, 519, 518
186, 363, 364, 416, 415, 467, 468, 520, 519
187, 364, 365, 417, 416, 468, 469, 521, 520
188, 365, 366, 418, 417, 469, 470, 522, 521
189, 366, 367, 419, 418, 470, 471, 523, 522
190, 367, 368, 420, 419, 471, 472, 524, 523
191, 368, 369, 421, 420, 472, 473, 525, 524
192, 369, 370, 422, 421, 473, 474, 526, 525
193, 370, 371, 423, 422, 474, 475, 527, 526
194, 371, 372, 424, 423, 475, 476, 528, 527
195, 372, 373, 425, 424, 476, 477, 529, 528
196, 373, 374, 426, 425, 477, 478, 530, 529
197, 374, 375, 427, 426, 478, 479, 531, 530
198, 375, 376, 428, 427, 479, 480, 532, 531
199, 376, 377, 429, 428, 480, 481, 533, 532
200, 377, 378, 430, 429, 481, 482, 534, 533
201, 378, 379, 431, 430, 482, 483, 535, 534
202, 379, 380, 432, 431, 483, 484, 536, 535
203, 380, 381, 433, 432, 484, 485, 537, 536
204, 381, 382, 434, 433, 485, 486, 538, 537
205, 382, 383, 435, 434, 486, 487, 539, 538
206, 383, 384, 436, 435, 487, 488, 540, 539
207, 384, 385, 437, 436, 488, 489, 541, 540
230, 460, 461, 513, 512, 564, 565, 617, 616
231, 461, 462, 514, 513, 565, 566, 618, 617
232, 462, 463, 515, 514, 566, 567, 619, 618
233, 463, 464, 516, 515, 567, 568, 620, 619
234, 464, 465, 517, 516, 568, 569, 621, 620
235, 465, 466, 518, 517, 569, 570, 622, 621
236, 466, 467, 519, 518, 570, 571, 623, 622
237, 467, 468, 520, 519, 571, 572, 624, 623
238, 468, 469, 521, 520, 572, 573, 625, 624
239, 469, 470, 522, 521, 573, 574, 626, 625
240, 470, 471, 523, 522, 574, 575, 627, 626
241, 471, 472, 524, 523, 575, 576, 628, 627
242, 472, 473, 525, 524, 576, 577, 629, 628
243, 473, 474, 526, 525, 577, 578, 630, 629
244, 474, 475, 527, 526, 578, 579, 631, 630
245, 475, 476, 528, 527, 579, 580, 632, 631
246, 476, 477, 529, 528, 580, 581, 633, 632
247, 477, 478, 530, 529, 581, 582, 634, 633
248, 478, 479, 531, 530, 582, 583, 635, 634
249, 479, 480, 532, 531, 583, 584, 636, 635
250, 480, 481, 533, 532, 584, 585, 637, 636
251, 481, 482, 534, 533, 585, 586, 638, 637
252, 482, 483, 535, 534, 586, 587, 639, 638
253, 483, 484, 536, 535, 587, 588, 640, 639
254, 484, 485, 537, 536, 588, 589, 641, 640
255, 485, 486, 538, 537, 589, 590, 642, 641
256, 486, 487, 539, 538, 590, 591, 643, 642
257, 487, 488, 540, 539, 591, 592, 644, 643
258, 488, 489, 541, 540, 592, 593, 645, 644
281, 564, 565, 617, 616, 668, 669, 721, 720
282, 565, 566, 618, 617, 669, 670, 722, 721
283, 566, 567, 619, 618, 670, 671, 723, 722
284, 567, 568, 620, 619, 671, 672, 724, 723
285, 568, 569, 621, 620, 672, 673, 725, 724
286, 569, 570, 622, 621, 673, 674, 726, 725
287, 570, 571, 623, 622, 674, 675, 727, 726
288, 571, 572, 624, 623, 675, 676, 728, 727
289, 572, 573, 625, 624, 676, 677, 729, 728
290, 573, 574, 626, 625, 677, 678, 730, 729
291, 574, 575, 627, 626, 678, 679, 731, 730
292, 575, 576, 628, 627, 679, 680, 732, 731
293, 576, 577, 629, 628, 680, 681, 733, 732
294, 577, 578, 630, 629, 681, 682, 734, 733
295, 578, 579, 631, 630, 682, 683, 735, 734
296, 579, 580, 632, 631, 683, 684, 736, 735
297, 580, 581, 633, 632, 684, 685, 737, 736
298, 581, 582, 634, 633, 685, 686, 738, 737
299, 582, 583, 635, 634, 686, 687, 739, 738
300, 583, 584, 636, 635, 687, 688, 740, 739
301, 584, 585, 637, 636, 688, 689, 741, 740
302, 585, 586, 638, 637, 689, 690, 742, 741
303, 586, 587, 639, 638, 690, 691, 743, 742
304, 587, 588, 640, 639, 691, 692, 744, 743
305, 588, 589, 641, 640, 692, 693, 745, 744
306, 589, 590, 642, 641, 693, 694, 746, 745
307, 590, 591, 643, 642, 694, 695, 747, 746
308, 591, 592, 644, 643, 695, 696, 748, 747
309, 592, 593, 645, 644, 696, 697, 749, 748
332, 668, 669, 721, 720, 772, 773, 825, 824
333, 669, 670, 722, 721, 773, 774, 826, 825
334, 670, 671, 723, 722, 774, 775, 827, 826
335, 671, 672, 724, 723, 775, 776, 828, 827
336, 672, 673, 725, 724, 776, 777, 829, 828
337, 673, 674, 726, 725, 777, 778, 830, 829
338, 674, 675, 727, 726, 778, 779, 831, 830
339, 675, 676, 728, 727, 779, 780, 832, 831
340, 676, 677, 729, 728, 780, 781, 833, 832
341, 677, 678, 730, 729, 781, 782, 834, 833
342, 678, 679, 731, 730, 782, 783, 835, 834
343, 679, 680, 732, 731, 783, 784, 836, 835
344, 680, 681, 733, 732, 784, 785, 837, 836
345, 681, 682, 734, 733, 785, 786, 838, 837
346, 682, 683, 735, 734, 786, 787, 839, 838
347, 683, 684, 736, 735, 787, 788, 840, 839
348, 684, 685, 737, 736, 788, 789, 841, 840
349, 685, 686, 738, 737, 789, 790, 842, 841
350, 686, 687, 739, 738, 790, 791, 843, 842
351, 687, 688, 740, 739, 791, 792, 844, 843
352, 688, 689, 741, 740, 792, 793, 845, 844
353, 689, 690, 742, 741, 793, 794, 846, 845
354, 690, 691, 743, 742, 794, 795, 847, 846
355, 691, 692, 744, 743, 795, 796, 848, 847
356, 692, 693, 745, 744, 796, 797, 849, 848
357, 693, 694, 746, 745, 797, 798, 850, 849
358, 694, 695, 747, 746, 798, 799, 851, 850
359, 695, 696, 748, 747, 799, 800, 852, 851
360, 696, 697, 749, 748, 800, 801, 853, 852
383, 772, 773, 825, 824, 876, 877, 929, 928
384, 773, 774, 826, 825, 877, 878, 930, 929
385, 774, 775, 827, 826, 878, 879, 931, 930
386, 775, 776, 828, 827, 879, 880, 932, 931
387, 776, 777, 829, 828, 880, 881, 933, 932
388, 777, 778, 830, 829, 881, 882, 934, 933
389, 778, 779, 831, 830, 882, 883, 935, 934
390, 779, 780, 832, 831, 883, 884, 936, 935
391, 780, 781, 833, 832, 884, 885, 937, 936
392, 781, 782, 834, 833, 885, 886, 938, 937
393, 782, 783, 835, 834, 886, 887, 939, 938
394, 783, 784, 836, 835, 887, 888, 940, 939
395, 784, 785, 837, 836, 888, 889, 941, 940
396, 785, 786, 838, 837, 889, 890, 942, 941
397, 786, 787, 839, 838, 890, 891, 943, 942
398, 787, 788, 840, 839, 891, 892, 944, 943
399, 788, 789, 841, 840, 892, 893, 945, 944
400, 789, 790, 842, 841, 893, 894, 946, 945
401, 790, 791, 843, 842, 894, 895, 947, 946
402, 791, 792, 844, 843, 895, 896, 948, 947
403, 792, 793, 845, 844, 896, 897, 949, 948
404, 793, 794, 846, 845, 897, 898, 950, 949
405, 794, 795, 847, 846, 898, 899, 951, 950
406, 795, 796, 848, 847, 899, 900, 952, 951
407, 796, 797, 849, 848, 900, 901, 953, 952
408, 797, 798, 850, 849, 901, 902, 954, 953
409, 798, 799, 851, 850, 902, 903, 955, 954
410, 799, 800, 852, 851, 903, 904, 956, 955
411, 800, 801, 853, 852, 904, 905, 957, 956
434, 876, 877, 929, 928, 980, 981, 1033, 1032
435, 877, 878, 930, 929, 981, 982, 1034, 1033
436, 878, 879, 931, 930, 982, 983, 1035, 1034
437, 879, 880, 932, 931, 983, 984, 1036, 1035
438, 880, 881, 933, 932, 984, 985, 1037, 1036
439, 881, 882, 934, 933, 985, 986, 1038, 1037
440, 882, 883, 935, 934, 986, 987, 1039, 1038
441, 883, 884, 936, 935, 987, 988, 1040, 1039
442, 884, 885, 937, 936, 988, 989, 1041, 1040
443, 885, 886, 938, 937, 989, 990, 1042, 1041
444, 886, 887, 939, 938, 990, 991, 1043, 1042
445, 887, 888, 940, 939, 991, 992, 1044, 1043
446, 888, 889, 941, 940, 992, 993, 1045, 1044
447, 889, 890, 942, 941, 993, 994, 1046, 1045
448, 890, 891, 943, 942, 994, 995, 1047, 1046
449, 891, 892, 944, 943, 995, 996, 1048, 1047
450, 892, 893, 945, 944, 996, 997, 1049, 1048
451, 893, 894, 946, 945, 997, 998, 1050, 1049
452, 894, 895, 947, 946, 998, 999, 1051, 1050
453, 895, 896, 948, 947, 999, 1000, 1052, 1051
454, 896, 897, 949, 948, 1000, 1001, 1053, 1052
455, 897, 898, 950, 949, 1001, 1002, 1054, 1053
456, 898, 899, 951, 950, 1002, 1003, 1055, 1054
457, 899, 900, 952, 951, 1003, 1004, 1056, 1055
458, 900, 901, 953, 952, 1004, 1005, 1057, 1056
459, 901, 902, 954, 953, 1005, 1006, 1058, 1057
460, 902, 903, 955, 954, 1006, 1007, 1059, 1058
461, 903, 904, 956, 955, 1007, 1008, 1060, 1059
462, 904, 905, 957, 956, 1008, 1009, 1061, 1060
485, 980, 981, 1033, 1032, 1084, 1085, 1137, 1136
486, 981, 982, 1034, 1033, 1085, 1086, 1138, 1137
487, 982, 983, 1035, 1034, 1086, 1087, 1139, 1138
488, 983, 984, 1036, 1035, 1087, 1088, 1140, 1139
489, 984, 985, 1037, 1036, 1088, 1089, 1141, 1140
490, 985, 986, 1038, 1037, 1089, 1090, 1142, 1141
491, 986, 987, 1039, 1038, 1090, 1091, 1143, 1142
492, 987, 988, 1040, 1039, 1091, 1092, 1144, 1143
493, 988, 989, 1041, 1040, 1092, 1093, 1145, 1144
494, 989, 990, 1042, 1041, 1093, 1094, 1146, 1145
495, 990, 991, 1043, 1042, 1094, 1095, 1147, 1146
496, 991, 992, 1044, 1043, 1095, 1096, 1148, 1147
497, 992, 993, 1045, 1044, 1096, 1097, 1149, 1148
498, 993, 994, 1046, 1045, 1097, 1098, 1150, 1149
499, 994, 995, 1047, 1046, 1098, 1099, 1151, 1150
500, 995, 996, 1048, 1047, 1099, 1100, 1152, 1151
501, 996, 997, 1049, 1048, 1100, 1101, 1153, 1152
502, 997, 998, 1050, 1049, 1101, 1102, 1154, 1153
503, 998, 999, 1051, 1050, 1102, 1103, 1155, 1154
504, 999, 1000, 1052, 1051, 1103, 1104, 1156, 1155
505, 1000, 1001, 1053, 1052, 1104, 1105, 1157, 1156
506, 1001, 1002, 1054, 1053, 1105, 1106, 1158, 1157
507, 1002, 1003, 1055, 1054, 1106, 1107, 1159, 1158
508, 1003, 1004, 1056, 1055, 1107, 1108, 1160, 1159
509, 1004, 1005, 1057, 1056, 1108, 1109, 1161, 1160
510, 1005, 1006, 1058, 1057, 1109, 1110, 1162, 1161
511, 1006, 1007, 1059, 1058, 1110, 1111, 1163, 1162
512, 1007, 1008, 1060, 1059, 1111, 1112, 1164, 1163
513, 1008, 1009, 1061, 1060, 1112, 1113, 1165, 1164
536, 1084, 1085, 1137, 1136, 1188, 1189, 1241, 1240
537, 1085, 1086, 1138, 1137, 1189, 1190, 1242, 1241
538, 1086, 1087, 1139, 1138, 1190, 1191, 1243, 1242
539, 1087, 1088, 1140, 1139, 1191, 1192, 1244, 1243
540, 1088, 1089, 1141, 1140, 1192, 1193, 1245, 1244
541, 1089, 1090, 1142, 1141, 1193, 1194, 1246, 1245
542, 1090, 1091, 1143, 1142, 1194, 1195, 1247, 1246
543, 1091, 1092, 1144, 1143, 1195, 1196, 1248, 1247
544, 1092, 1093, 1145, 1144, 1196, 1197, 1249, 1248
545, 1093, 1094, 1146, 1145, 1197, 1198, 1250, 1249
546, 1094, 1095, 1147, 1146, 1198, 1199, 1251, 1250
547, 1095, 1096, 1148, 1147, 1199, 1200, 1252, 1251
548, 1096, 1097, 1149, 1148, 1200, 1201, 1253, 1252
549, 1097, 1098, 1150, 1149, 1201, 1202, 1254, 1253
550, 1098, 1099, 1151, 1150, 1202, 1203, 1255, 1254
551, 1099, 1100, 1152, 1151, 1203, 1204, 1256, 1255
552, 1100, 1101, 1153, 1152, 1204, 1205, 1257, 1256
553, 1101, 1102, 1154, 1153, 1205, 1206, 1258, 1257
554, 1102, 1103, 1155, 1154, 1206, 1207, 1259, 1258
555, 1103, 1104, 1156, 1155, 1207, 1208, 1260, 1259
556, 1104, 1105, 1157, 1156, 1208, 1209, 1261, 1260
557, 1105, 1106, 1158, 1157, 1209, 1210, 1262, 1261
558, 1106, 1107, 1159, 1158, 1210, 1211, 1263, 1262
559, 1107, 1108, 1160, 1159, 1211, 1212, 1264, 1263
560, 1108, 1109, 1161, 1160, 1212, 1213, 1265, 1264
561, 1109, 1110, 1162, 1161, 1213, 1214, 1266, 1265
562, 1110, 1111, 1163, 1162, 1214, 1215, 1267, 1266
563, 1111, 1112, 1164, 1163, 1215, 1216, 1268, 1267
564, 1112, 1113, 1165, 1164, 1216, 1217, 1269, 1268
587, 1188, 1189, 1241, 1240, 1292, 1293, 1345, 1344
588, 1189, 1190, 1242, 1241, 1293, 1294, 1346, 1345
589, 1190, 1191, 1243, 1242, 1294, 1295, 1347, 1346
590, 1191, 1192, 1244, 1243, 1295, 1296, 1348, 1347
591, 1192, 1193, 1245, 1244, 1296, 1297, 1349, 1348
592, 1193, 1194, 1246, 1245, 1297, 1298, 1350, 1349
593, 1194, 1195, 1247, 1246, 1298, 1299, 1351, 1350
594, 1195, 1196, 1248, 1247, 1299, 1300, 1352, 1351
595, 1196, 1197, 1249, 1248, 1300, 1301, 1353, 1352
596, 1197, 1198, 1250, 1249, 1301, 1302, 1354, 1353
597, 1198, 1199, 1251, 1250, 1302, 1303, 1355, 1354
598, 1199, 1200, 1252, 1251, 1303, 1304, 1356, 1355
599, 1200, 1201, 1253, 1252, 1304, 1305, 1357, 1356
600, 1201, 1202, 1254, 1253, 1305, 1306, 1358, 1357
601, 1202, 1203, 1255, 1254, 1306, 1307, 1359, 1358
602, 1203, 1204, 1256, 1255, 1307, 1308, 1360, 1359
603, 1204, 1205, 1257, 1256, 1308, 1309, 1361, 1360
604, 1205, 1206, 1258, 1257, 1309, 1310, 1362, 1361
605, 1206, 1207, 1259, 1258, 1310, 1311, 1363, 1362
606, 1207, 1208, 1260, 1259, 1311, 1312, 1364, 1363
607, 1208, 1209, 1261, 1260, 1312, 1313, 1365, 1364
608, 1209, 1210, 1262, 1261, 1313, 1314, 1366, 1365
609, 1210, 1211, 1263, 1262, 1314, 1315, 1367, 1366
610, 1211, 1212, 1264, 1263, 1315, 1316, 1368, 1367
611, 1212, 1213, 1265, 1264, 1316, 1317, 1369, 1368
612, 1213, 1214, 1266, 1265, 1317, 1318, 1370, 1369
613, 1214, 1215, 1267, 1266, 1318, 1319, 1371, 1370
614, 1215, 1216, 1268, 1267, 1319, 1320, 1372, 1371
615, 1216, 1217, 1269, 1268, 1320, 1321, 1373, 1372
638, 1292, 1293, 1345, 1344, 1396, 1397, 1449, 1448
639, 1293, 1294, 1346, 1345, 1397, 1398, 1450, 1449
640, 1294, 1295, 1347, 1346, 1398, 1399, 1451, 1450
641, 1295, 1296, 1348, 1347, 1399, 1400, 1452, 1451
642, 1296, 1297, 1349, 1348, 1400, 1401, 1453, 1452
643, 1297, 1298, 1350, 1349, 1401, 1402, 1454, 1453
644, 1298, 1299, 1351, 1350, 1402, 1403, 1455, 1454
645, 1299, 1300, 1352, 1351, 1403, 1404, 1456, 1455
646, 1300, 1301, 1353, 1352, 1404, 1405, 1457, 1456
647, 1301, 1302, 1354, 1353, 1405, 1406, 1458, 1457
648, 1302, 1303, 1355, 1354, 1406, 1407, 1459, 1458
649, 1303, 1304, 1356, 1355, 1407, 1408, 1460, 1459
650, 1304, 1305, 1357, 1356, 1408, 1409, 1461, 1460
651, 1305, 1306, 1358, 1357, 1409, 1410, 1462, 1461
652, 1306, 1307, 1359, 1358, 1410, 1411, 1463, 1462
653, 1307, 1308, 1360, 1359, 1411, 1412, 1464, 1463
654, 1308, 1309, 1361, 1360, 1412, 1413, 1465, 1464
655, 1309, 1310, 1362, 1361, 1413, 1414, 1466, 1465
656, 1310, 1311, 1363, 1362, 1414, 1415, 1467, 1466
657, 1311, 1312, 1364, 1363, 1415, 1416, 1468, 1467
658, 1312, 1313, 1365, 1364, 1416, 1417, 1469, 1468
659, 1313, 1314, 1366, 1365, 1417, 1418, 1470, 1469
660, 1314, 1315, 1367, 1366, 1418, 1419, 1471, 1470
661, 1315, 1316, 1368, 1367, 1419, 1420, 1472, 1471
662, 1316, 1317, 1369, 1368, 1420, 1421, 1473, 1472
663, 1317, 1318, 1370, 1369, 1421, 1422, 1474, 1473
664, 1318, 1319, 1371, 1370, 1422, 1423, 1475, 1474
665, 1319, 1320, 1372, 1371, 1423, 1424, 1476, 1475
666, 1320, 1321, 1373, 1372, 1424, 1425, 1477, 1476
689, 1396, 1397, 1449, 1448, 1500, 1501, 1553, 1552
690, 1397, 1398, 1450, 1449, 1501, 1502, 1554, 1553
691, 1398, 1399, 1451, 1450, 1502, 1503, 1555, 1554
692, 1399, 1400, 1452, 1451, 1503, 1504, 1556, 1555
693, 1400, 1401, 1453, 1452, 1504, 1505, 1557, 1556
694, 1401, 1402, 1454, 1453, 1505, 1506, 1558, 1557
695, 1402, 1403, 1455, 1454, 1506, 1507, 1559, 1558
696, 1403, 1404, 1456, 1455, 1507, 1508, 1560, 1559
697, 1404, 1405, 1457, 1456, 1508, 1509, 1561, 1560
698, 1405, 1406, 1458, 1457, 1509, 1510, 1562, 1561
699, 1406, 1407, 1459, 1458, 1510, 1511, 1563, 1562
700, 1407, 1408, 1460, 1459, 1511, 1512, 1564, 1563
701, 1408, 1409, 1461, 1460, 1512, 1513, 1565, 1564
702, 1409, 1410, 1462, 1461, 1513, 1514, 1566, 1565
703, 1410, 1411, 1463, 1462, 1514, 1515, 1567, 1566
704, 1411, 1412, 1464, 1463, 1515, 1516, 1568, 1567
705, 1412, 1413, 1465, 1464, 1516, 1517, 1569, 1568
706, 1413, 1414, 1466, 1465, 1517, 1518, 1570, 1569
707, 1414, 1415, 1467, 1466, 1518, 1519, 1571, 1570
708, 1415, 1416, 1468, 1467, 1519, 1520, 1572, 1571
709, 1416, 1417, 1469, 1468, 1520, 1521, 1573, 1572
710, 1417, 1418, 1470, 1469, 1521, 1522, 1574, 1573
711, 1418, 1419, 1471, 1470, 1522, 1523, 1575, 1574
712, 1419, 1420, 1472, 1471, 1523, 1524, 1576, 1575
713, 1420, 1421, 1473, 1472, 1524, 1525, 1577, 1576
714, 1421, 1422, 1474, 1473, 1525, 1526, 1578, 1577
715, 1422, 1423, 1475, 1474, 1526, 1527, 1579, 1578
716, 1423, 1424, 1476, 1475, 1527, 1528, 1580, 1579
717, 1424, 1425, 1477, 1476, 1528, 1529, 1581, 1580
740, 1500, 1501, 1553, 1552, 1604, 1605, 1657, 1656
741, 1501, 1502, 1554, 1553, 1605, 1606, 1658, 1657
742, 1502, 1503, 1555, 1554, 1606, 1607, 1659, 1658
743, 1503, 1504, 1556, 1555, 1607, 1608, 1660, 1659
744, 1504, 1505, 1557, 1556, 1608, 1609, 1661, 1660
745, 1505, 1506, 1558, 1557, 1609, 1610, 1662, 1661
746, 1506, 1507, 1559, 1558, 1610, 1611, 1663, 1662
747, 1507, 1508, 1560, 1559, 1611, 1612, 1664, 1663
748, 1508, 1509, 1561, 1560, 1612, 1613, 1665, 1664
749, 1509, 1510, 1562, 1561, 1613, 1614, 1666, 1665
750, 1510, 1511, 1563, 1562, 1614, 1615, 1667, 1666
751, 1511, 1512, 1564, 1563, 1615, 1616, 1668, 1667
752, 1512, 1513, 1565, 1564, 1616, 1617, 1669, 1668
753, 1513, 1514, 1566, 1565, 1617, 1618, 1670, 1669
754, 1514, 1515, 1567, 1566, 1618, 1619, 1671, 1670
755, 1515, 1516, 1568, 1567, 1619, 1620, 1672, 1671
756, 1516, 1517, 1569, 1568, 1620, 1621, 1673, 1672
757, 1517, 1518, 1570, 1569, 1621, 1622, 1674, 1673
758, 1518, 1519, 1571, 1570, 1622, 1623, 1675, 1674
759, 1519, 1520, 1572, 1571, 1623, 1624, 1676, 1675
760, 1520, 1521, 1573, 1572, 1624, 1625, 1677, 1676
761, 1521, 1522, 1574, 1573, 1625, 1626, 1678, 1677
762, 1522, 1523, 1575, 1574, 1626, 1627, 1679, 1678
763, 1523, 1524, 1576, 1575, 1627, 1628, 1680, 1679
764, 1524, 1525, 1577, 1576, 1628, 1629, 1681, 1680
765, 1525, 1526, 1578, 1577, 1629, 1630, 1682, 1681
766, 1526, 1527, 1579, 1578, 1630, 1631, 1683, 1682
767, 1527, 1528, 1580, 1579, 1631, 1632, 1684, 1683
768, 1528, 1529, 1581, 1580, 1632, 1633, 1685, 1684
791, 1604, 1605, 1657, 1656, 1708, 1709, 1761, 1760
792, 1605, 1606, 1658, 1657, 1709, 1710, 1762, 1761
793, 1606, 1607, 1659, 1658, 1710, 1711, 1763, 1762
794, 1607, 1608, 1660, 1659, 1711, 1712, 1764, 1763
795, 1608, 1609, 1661, 1660, 1712, 1713, 1765, 1764
796, 1609, 1610, 1662, 1661, 1713, 1714, 1766, 1765
797, 1610, 1611, 1663, 1662, 1714, 1715, 1767, 1766
798, 1611, 1612, 1664, 1663, 1715, 1716, 1768, 1767
799, 1612, 1613, 1665, 1664, 1716, 1717, 1769, 1768
800, 1613, 1614, 1666, 1665, 1717, 1718, 1770, 1769
801, 1614, 1615, 1667, 1666, 1718, 1719, 1771, 1770
802, 1615, 1616, 1668, 1667, 1719, 1720, 1772, 1771
803, 1616, 1617, 1669, 1668, 1720, 1721, 1773, 1772
804, 1617, 1618, 1670, 1669, 1721, 1722, 1774, 1773
805, 1618, 1619, 1671, 1670, 1722, 1723, 1775, 1774
806, 1619, 1620, 1672, 1671, 1723, 1724, 1776, 1775
807, 1620, 1621, 1673, 1672, 1724, 1725, 1777, 1776
808, 1621, 1622, 1674, 1673, 1725, 1726, 1778, 1777
809, 1622, 1623, 1675, 1674, 1726, 1727, 1779, 1778
810, 1623, 1624, 1676, 1675, 1727, 1728, 1780, 1779
811, 1624, 1625, 1677, 1676, 1728, 1729, 1781, 1780
812, 1625, 1626, 1678, 1677, 1729, 1730, 1782, 1781
813, 1626, 1627, 1679, 1678, 1730, 1731, 1783, 1782
814, 1627, 1628, 1680, 1679, 1731, 1732, 1784, 1783
815, 1628, 1629, 1681, 1680, 1732, 1733, 1785, 1784
816, 1629, 1630, 1682, 1681, 1733, 1734, 1786, 1785
817, 1630, 1631, 1683, 1682, 1734, 1735, 1787, 1786
818, 1631, 1632, 1684, 1683, 1735, 1736, 1788, 1787
819, 1632, 1633, 1685, 1684, 1736, 1737, 1789, 1788
842, 1708, 1709, 1761, 1760, 1812, 1813, 1865, 1864
843, 1709, 1710, 1762, 1761, 1813, 1814, 1866, 1865
844, 1710, 1711, 1763, 1762, 1814, 1815, 1867, 1866
845, 1711, 1712, 1764, 1763, 1815, 1816, 1868, 1867
846, 1712, 1713, 1765, 1764, 1816, 1817, 1869, 1868
847, 1713, 1714, 1766, 1765, 1817, 1818, 1870, 1869
848, 1714, 1715, 1767, 1766, 1818, 1819, 1871, 1870
849, 1715, 1716, 1768, 1767, 1819, 1820, 1872, 1871
850, 1716, 1717, 1769, 1768, 1820, 1821, 1873, 1872
851, 1717, 1718, 1770, 1769, 1821, 1822, 1874, 1873
852, 1718, 1719, 1771, 1770, 1822, 1823, 1875, 1874
853, 1719, 1720, 1772, 1771, 1823, 1824, 1876, 1875
854, 1720, 1721, 1773, 1772, 1824, 1825, 1877, 1876
855, 1721, 1722, 1774, 1773, 1825, 1826, 1878, 1877
856, 1722, 1723, 1775, 1774, 1826, 1827, 1879, 1878
857, 1723, 1724, 1776, 1775, 1827, 1828, 1880, 1879
858, 1724, 1725, 1777, 1776, 1828, 1829, 1881, 1880
859, 1725, 1726, 1778, 1777, 1829, 1830, 1882, 1881
860, 1726, 1727, 1779, 1778, 1830, 1831, 1883, 1882
861, 1727, 1728, 1780, 1779, 1831, 1832, 1884, 1883
862, 1728, 1729, 1781, 1780, 1832, 1833, 1885, 1884
863, 1729, 1730, 1782, 1781, 1833, 1834, 1886, 1885
864, 1730, 1731, 1783, 1782, 1834, 1835, 1887, 1886
865, 1731, 1732, 1784, 1783, 1835, 1836, 1888, 1887
866, 1732, 1733, 1785, 1784, 1836, 1837, 1889, 1888
867, 1733, 1734, 1786, 1785, 1837, 1838, 1890, 1889
868, 1734, 1735, 1787, 1786, 1838, 1839, 1891, 1890
869, 1735, 1736, 1788, 1787, 1839, 1840, 1892, 1891
870, 1736, 1737, 1789, 1788, 1840, 1841, 1893, 1892
893, 1812, 1813, 1865, 1864, 1916, 1917, 1969, 1968
894, 1813, 1814, 1866, 1865, 1917, 1918, 1970, 1969
895, 1814, 1815, 1867, 1866, 1918, 1919, 1971, 1970
896, 1815, 1816, 1868, 1867, 1919, 1920, 1972, 1971
897, 1816, 1817, 1869, 1868, 1920, 1921, 1973, 1972
898, 1817, 1818, 1870, 1869, 1921, 1922, 1974, 1973
899, 1818, 1819, 1871, 1870, 1922, 1923, 1975, 1974
900, 1819, 1820, 1872, 1871, 1923, 1924, 1976, 1975
901, 1820, 1821, 1873, 1872, 1924, 1925, 1977, 1976
902, 1821, 1822, 1874, 1873, 1925, 1926, 1978, 1977
903, 1822, 1823, 1875, 1874, 1926, 1927, 1979, 1978
904, 1823, 1824, 1876, 1875, 1927, 1928, 1980, 1979
905, 1824, 1825, 1877, 1876, 1928, 1929, 1981, 1980
906, 1825, 1826, 1878, 1877, 1929, 1930, 1982, 1981
907, 1826, 1827, 1879, 1878, 1930, 1931, 1983, 1982
908, 1827, 1828, 1880, 1879, 1931, 1932, 1984, 1983
909, 1828, 1829, 1881, 1880, 1932, 1933, 1985, 1984
910, 1829, 1830, 1882, 1881, 1933, 1934, 1986, 1985
911, 1830, 1831, 1883, 1882, 1934, 1935, 1987, 1986
912, 1831, 1832, 1884, 1883, 1935, 1936, 1988, 1987
913, 1832, 1833, 1885, 1884, 1936, 1937, 1989, 1988
914, 1833, 1834, 1886, 1885, 1937, 1938, 1990, 1989
915, 1834, 1835, 1887, 1886, 1938, 1939, 1991, 1990
916, 1835, 1836, 1888, 1887, 1939, 1940, 1992, 1991
917, 1836, 1837, 1889, 1888, 1940, 1941, 1993, 1992
918, 1837, 1838, 1890, 1889, 1941, 1942, 1994, 1993
919, 1838, 1839, 1891, 1890, 1942, 1943, 1995, 1994
920, 1839, 1840, 1892, 1891, 1943, 1944, 1996, 1995
921, 1840, 1841, 1893, 1892, 1944, 1945, 1997, 1996
944, 1916, 1917, 1969, 1968, 2020, 2021, 2073, 2072
945, 1917, 1918, 1970, 1969, 2021, 2022, 2074, 2073
946, 1918, 1919, 1971, 1970, 2022, 2023, 2075, 2074
947, 1919, 1920, 1972, 1971, 2023, 2024, 2076, 2075
948, 1920, 1921, 1973, 1972, 2024, 2025, 2077, 2076
949, 1921, 1922, 1974, 1973, 2025, 2026, 2078, 2077
950, 1922, 1923, 1975, 1974, 2026, 2027, 2079, 2078
951, 1923, 1924, 1976, 1975, 2027, 2028, 2080, 2079
952, 1924, 1925, 1977, 1976, 2028, 2029, 2081, 2080
953, 1925, 1926, 1978, 1977, 2029, 2030, 2082, 2081
954, 1926, 1927, 1979, 1978, 2030, 2031, 2083, 2082
955, 1927, 1928, 1980, 1979, 2031, 2032, 2084, 2083
956, 1928, 1929, 1981, 1980, 2032, 2033, 2085, 2084
957, 1929, 1930, 1982, 1981, 2033, 2034, 2086, 2085
958, 1930, 1931, 1983, 1982, 2034, 2035, 2087, 2086
959, 1931, 1932, 1984, 1983, 2035, 2036, 2088, 2087
960, 1932, 1933, 1985, 1984, 2036, 2037, 2089, 2088
961, 1933, 1934, 1986, 1985, 2037, 2038, 2090, 2089
962, 1934, 1935, 1987, 1986, 2038, 2039, 2091, 2090
963, 1935, 1936, 1988, 1987, 2039, 2040, 2092, 2091
964, 1936, 1937, 1989, 1988, 2040, 2041, 2093, 2092
965, 1937, 1938, 1990, 1989, 2041, 2042, 2094, 2093
966, 1938, 1939, 1991, 1990, 2042, 2043, 2095, 2094
967, 1939, 1940, 1992, 1991, 2043, 2044, 2096, 2095
968, 1940, 1941, 1993, 1992, 2044, 2045, 2097, 2096
969, 1941, 1942, 1994, 1993, 2045, 2046, 2098, 2097
970, 1942, 1943, 1995, 1994, 2046, 2047, 2099, 2098
971, 1943, 1944, 1996, 1995, 2047, 2048, 2100, 2099
972, 1944, 1945, 1997, 1996, 2048, 2049, 2101, 2100
995, 2020, 2021, 2073, 2072, 2124, 2125, 2177, 2176
996, 2021, 2022, 2074, 2073, 2125, 2126, 2178, 2177
997, 2022, 2023, 2075, 2074, 2126, 2127, 2179, 2178
998, 2023, 2024, 2076, 2075, 2127, 2128, 2180, 2179
999, 2024, 2025, 2077, 2076, 2128, 2129, 2181, 2180
1000, 2025, 2026, 2078, 2077, 2129, 2130, 2182, 2181
1001, 2026, 2027, 2079, 2078, 2130, 2131, 2183, 2182
1002, 2027, 2028, 2080, 2079, 2131, 2132, 2184, 2183
1003, 2028, 2029, 2081, 2080, 2132, 2133, 2185, 2184
1004, 2029, 2030, 2082, 2081, 2133, 2134, 2186, 2185
1005, 2030, 2031, 2083, 2082, 2134, 2135, 2187, 2186
1006, 2031, 2032, 2084, 2083, 2135, 2136, 2188, 2187
1007, 2032, 2033, 2085, 2084, 2136, 2137, 2189, 2188
1008, 2033, 2034, 2086, 2085, 2137, 2138, 2190, 2189
1009, 2034, 2035, 2087, 2086, 2138, 2139, 2191, 2190
1010, 2035, 2036, 2088, 2087, 2139, 2140, 2192, 2191
1011, 2036, 2037, 2089, 2088, 2140, 2141, 2193, 2192
1012, 2037, 2038, 2090, 2089, 2141, 2142, 2194, 2193
1013, 2038, 2039, 2091, 2090, 2142, 2143, 2195, 2194
1014, 2039, 2040, 2092, 2091, 2143, 2144, 2196, 2195
1015, 2040, 2041, 2093, 2092, 2144, 2145, 2197, 2196
1016, 2041, 2042, 2094, 2093, 2145, 2146, 2198, 2197
1017, 2042, 2043, 2095, 2094, 2146, 2147, 2199, 2198
1018, 2043, 2044, 2096, 2095, 2147, 2148, 2200, 2199
1019, 2044, 2045, 2097, 2096, 2148, 2149, 2201, 2200
1020, 2045, 2046, 2098, 2097, 2149, 2150, 2202, 2201
1021, 2046, 2047, 2099, 2098, 2150, 2151, 2203, 2202
1022, 2047, 2048, 2100, 2099, 2151, 2152, 2204, 2203
1023, 2048, 2049, 2101, 2100, 2152, 2153, 2205, 2204
1046, 2124, 2125, 2177, 2176, 2228, 2229, 2281, 2280
1047, 2125, 2126, 2178, 2177, 2229, 2230, 2282, 2281
1048, 2126, 2127, 2179, 2178, 2230, 2231, 2283, 2282
1049, 2127, 2128, 2180, 2179, 2231, 2232, 2284, 2283
1050, 2128, 2129, 2181, 2180, 2232, 2233, 2285, 2284
1051, 2129, 2130, 2182, 2181, 2233, 2234, 2286, 2285
1052, 2130, 2131, 2183, 2182, 2234, 2235, 2287, 2286
1053, 2131, 2132, 2184, 2183, 2235, 2236, 2288, 2287
1054, 2132, 2133, 2185, 2184, 2236, 2237, 2289, 2288
1055, 2133, 2134, 2186, 2185, 2237, 2238, 2290, 2289
1056, 2134, 2135, 2187, 2186, 2238, 2239, 2291, 2290
1057, 2135, 2136, 2188, 2187, 2239, 2240, 2292, 2291
1058, 2136, 2137, 2189, 2188, 2240, 2241, 2293, 2292
1059, 2137, 2138, 2190, 2189, 2241, 2242, 2294, 2293
1060, 2138, 2139, 2191, 2190, 2242, 2243, 2295, 2294
1061, 2139, 2140, 2192, 2191, 2243, 2244, 2296, 2295
1062, 2140, 2141, 2193, 2192, 2244, 2245, 2297, 2296
1063, 2141, 2142, 2194, 2193, 2245, 2246, 2298, 2297
1064, 2142, 2143, 2195, 2194, 2246, 2247, 2299, 2298
1065, 2143, 2144, 2196, 2195, 2247, 2248, 2300, 2299
1066, 2144, 2145, 2197, 2196, 2248, 2249, 2301, 2300
1067, 2145, 2146, 2198, 2197, 2249, 2250, 2302, 2301
1068, 2146, 2147, 2199, 2198, 2250, 2251, 2303, 2302
1069, 2147, 2148, 2200, 2199, 2251, 2252, 2304, 2303
1070, 2148, 2149, 2201, 2200, 2252, 2253, 2305, 2304
1071, 2149, 2150, 2202, 2201, 2253, 2254, 2306, 2305
1072, 2150, 2151, 2203, 2202, 2254, 2255, 2307, 2306
1073, 2151, 2152, 2204, 2203, 2255, 2256, 2308, 2307
1074, 2152, 2153, 2205, 2204, 2256, 2257, 2309, 2308
1097, 2228, 2229, 2281, 2280, 2332, 2333, 2385, 2384
1098, 2229, 2230, 2282, 2281, 2333, 2334, 2386, 2385
1099, 2230, 2231, 2283, 2282, 2334, 2335, 2387, 2386
1100, 2231, 2232, 2284, 2283, 2335, 2336, 2388, 2387
1101, 2232, 2233, 2285, 2284, 2336, 2337, 2389, 2388
1102, 2233, 2234, 2286, 2285, 2337, 2338, 2390, 2389
1103, 2234, 2235, 2287, 2286, 2338, 2339, 2391, 2390
1104, 2235, 2236, 2288, 2287, 2339, 2340, 2392, 2391
1105, 2236, 2237, 2289, 2288, 2340, 2341, 2393, 2392
1106, 2237, 2238, 2290, 2289, 2341, 2342, 2394, 2393
1107, 2238, 2239, 2291, 2290, 2342, 2343, 2395, 2394
1108, 2239, 2240, 2292, 2291, 2343, 2344, 2396, 2395
1109, 2240, 2241, 2293, 2292, 2344, 2345, 2397, 2396
1110, 2241, 2242, 2294, 2293, 2345, 2346, 2398, 2397
1111, 2242, 2243, 2295, 2294, 2346, 2347, 2399, 2398
1112, 2243, 2244, 2296, 2295, 2347, 2348, 2400, 2399
1113, 2244, 2245, 2297, 2296, 2348, 2349, 2401, 2400
1114, 2245, 2246, 2298, 2297, 2349, 2350, 2402, 2401
1115, 2246, 2247, 2299, 2298, 2350, 2351, 2403, 2402
1116, 2247, 2248, 2300, 2299, 2351, 2352, 2404, 2403
1117, 2248, 2249, 2301, 2300, 2352, 2353, 2405, 2404
1118, 2249, 2250, 2302, 2301, 2353, 2354, 2406, 2405
1119, 2250, 2251, 2303, 2302, 2354, 2355, 2407, 2406
1120, 2251, 2252, 2304, 2303, 2355, 2356, 2408, 2407
1121, 2252, 2253, 2305, 2304, 2356, 2357, 2409, 2408
1122, 2253, 2254, 2306, 2305, 2357, 2358, 2410, 2409
1123, 2254, 2255, 2307, 2306, 2358, 2359, 2411, 2410
1124, 2255, 2256, 2308, 2307, 2359, 2360, 2412, 2411
1125, 2256, 2257, 2309, 2308, 2360, 2361, 2413, 2412
1148, 2332, 2333, 2385, 2384, 2436, 2437, 2489, 2488
1149, 2333, 2334, 2386, 2385, 2437, 2438, 2490, 2489
1150, 2334, 2335, 2387, 2386, 2438, 2439, 2491, 2490
1151, 2335, 2336, 2388, 2387, 2439, 2440, 2492, 2491
1152, 2336, 2337, 2389, 2388, 2440, 2441, 2493, 2492
1153, 2337, 2338, 2390, 2389, 2441, 2442, 2494, 2493
1154, 2338, 2339, 2391, 2390, 2442, 2443, 2495, 2494
1155, 2339, 2340, 2392, 2391, 2443, 2444, 2496, 2495
1156, 2340, 2341, 2393, 2392, 2444, 2445, 2497, 2496
1157, 2341, 2342, 2394, 2393, 2445, 2446, 2498, 2497
1158, 2342, 2343, 2395, 2394, 2446, 2447, 2499, 2498
1159, 2343, 2344, 2396, 2395, 2447, 2448, 2500, 2499
1160, 2344, 2345, 2397, 2396, 2448, 2449, 2501, 2500
1161, 2345, 2346, 2398, 2397, 2449, 2450, 2502, 2501
1162, 2346, 2347, 2399, 2398, 2450, 2451, 2503, 2502
1163, 2347, 2348, 2400, 2399, 2451, 2452, 2504, 2503
1164, 2348, 2349, 2401, 2400, 2452, 2453, 2505, 2504
1165, 2349, 2350, 2402, 2401, 2453, 2454, 2506, 2505
1166, 2350, 2351, 2403, 2402, 2454, 2455, 2507, 2506
1167, 2351, 2352, 2404, 2403, 2455, 2456, 2508, 2507
1168, 2352, 2353, 2405, 2404, 2456, 2457, 2509, 2508
1169, 2353, 2354, 2406, 2405, 2457, 2458, 2510, 2509
1170, 2354, 2355, 2407, 2406, 2458, 2459, 2511, 2510
1171, 2355, 2356, 2408, 2407, 2459, 2460, 2512, 2511
1172, 2356, 2357, 2409, 2408, 2460, 2461, 2513, 2512
1173, 2357, 2358, 2410, 2409, 2461, 2462, 2514, 2513
1174, 2358, 2359, 2411, 2410, 2462, 2463, 2515, 2514
1175, 2359, 2360, 2412, 2411, 2463, 2464, 2516, 2515
1176, 2360, 2361, 2413, 2412, 2464, 2465, 2517, 2516
1199, 2436, 2437, 2489, 2488, 2540, 2541, 2593, 2592
1200, 2437, 2438, 2490, 2489, 2541, 2542, 2594, 2593
1201, 2438, 2439, 2491, 2490, 2542, 2543, 2595, 2594
1202, 2439, 2440, 2492, 2491, 2543, 2544, 2596, 2595
1203, 2440, 2441, 2493, 2492, 2544, 2545, 2597, 2596
1204, 2441, 2442, 2494, 2493, 2545, 2546, 2598, 2597
1205, 2442, 2443, 2495, 2494, 2546, 2547, 2599, 2598
1206, 2443, 2444, 2496, 2495, 2547, 2548, 2600, 2599
1207, 2444, 2445, 2497, 2496, 2548, 2549, 2601, 2600
1208, 2445, 2446, 2498, 2497, 2549, 2550, 2602, 2601
1209, 2446, 2447, 2499, 2498, 2550, 2551, 2603, 2602
1210, 2447, 2448, 2500, 2499, 2551, 2552, 2604, 2603
1211, 2448, 2449, 2501, 2500, 2552, 2553, 2605, 2604
1212, 2449, 2450, 2502, 2501, 2553, 2554, 2606, 2605
1213, 2450, 2451, 2503, 2502, 2554, 2555, 2607, 2606
1214, 2451, 2452, 2504, 2503, 2555, 2556, 2608, 2607
1215, 2452, 2453, 2505, 2504, 2556, 2557, 2609, 2608
1216, 2453, 2454, 2506, 2505, 2557, 2558, 2610, 2609
1217, 2454, 2455, 2507, 2506, 2558, 2559, 2611, 2610
1218, 2455, 2456, 2508, 2507, 2559, 2560, 2612, 2611
1219, 2456, 2457, 2509, 2508, 2560, 2561, 2613, 2612
1220, 2457, 2458, 2510, 2509, 2561, 2562, 2614, 2613
1221, 2458, 2459, 2511, 2510, 2562, 2563, 2615, 2614
1222, 2459, 2460, 2512, 2511, 2563, 2564, 2616, 2615
1223, 2460, 2461, 2513, 2512, 2564, 2565, 2617, 2616
1224, 2461, 2462, 2514, 2513, 2565, 2566, 2618, 2617
1225, 2462, 2463, 2515, 2514, 2566, 2567, 2619, 2618
1226, 2463, 2464, 2516, 2515, 2567, 2568, 2620, 2619
1227, 2464, 2465, 2517, 2516, 2568, 2569, 2621, 2620
1250, 2540, 2541, 2593, 2592, 2644, 2645, 2697, 2696
1251, 2541, 2542, 2594, 2593, 2645, 2646, 2698, 2697
1252, 2542, 2543, 2595, 2594, 2646, 2647, 2699, 2698
1253, 2543, 2544, 2596, 2595, 2647, 2648, 2700, 2699
1254, 2544, 2545, 2597, 2596, 2648, 2649, 2701, 2700
1255, 2545, 2546, 2598, 2597, 2649, 2650, 2702, 2701
1256, 2546, 2547, 2599, 2598, 2650, 2651, 2703, 2702
1257, 2547, 2548, 2600, 2599, 2651, 2652, 2704, 2703
1258, 2548, 2549, 2601, 2600, 2652, 2653, 2705, 2704
1259, 2549, 2550, 2602, 2601, 2653, 2654, 2706, 2705
1260, 2550, 2551, 2603, 2602, 2654, 2655, 2707, 2706
1261, 2551, 2552, 2604, 2603, 2655, 2656, 2708, 2707
1262, 2552, 2553, 2605, 2604, 2656, 2657, 2709, 2708
1263, 2553, 2554, 2606, 2605, 2657, 2658, 2710, 2709
1264, 2554, 2555, 2607, 2606, 2658, 2659, 2711, 2710
1265, 2555, 2556, 2608, 2607, 2659, 2660, 2712, 2711
1266, 2556, 2557, 2609, 2608, 2660, 2661, 2713, 2712
1267, 2557, 2558, 2610, 2609, 2661, 2662, 2714, 2713
1268, 2558, 2559, 2611, 2610, 2662, 2663, 2715, 2714
1269, 2559, 2560, 2612, 2611, 2663, 2664, 2716, 2715
1270, 2560, 2561, 2613, 2612, 2664, 2665, 2717, 2716
1271, 2561, 2562, 2614, 2613, 2665, 2666, 2718, 2717
1272, 2562, 2563, 2615, 2614, 2666, 2667, 2719, 2718
1273, 2563, 2564, 2616, 2615, 2667, 2668, 2720, 2719
1274, 2564, 2565, 2617, 2616, 2668, 2669, 2721, 2720
1275, 2565, 2566, 2618, 2617, 2669, 2670, 2722, 2721
1276, 2566, 2567, 2619, 2618, 2670, 2671, 2723, 2722
1277, 2567, 2568, 2620, 2619, 2671, 2672, 2724, 2723
1278, 2568, 2569, 2621, 2620, 2672, 2673, 2725, 2724
1301, 2644, 2645, 2697, 2696, 2748, 2749, 2801, 2800
1302, 2645, 2646, 2698, 2697, 2749, 2750, 2802, 2801
1303, 2646, 2647, 2699, 2698, 2750, 2751, 2803, 2802
1304, 2647, 2648, 2700, 2699, 2751, 2752, 2804, 2803
1305, 2648, 2649, 2701, 2700, 2752, 2753, 2805, 2804
1306, 2649, 2650, 2702, 2701, 2753, 2754, 2806, 2805
1307, 2650, 2651, 2703, 2702, 2754, 2755, 2807, 2806
1308, 2651, 2652, 2704, 2703, 2755, 2756, 2808, 2807
1309, 2652, 2653, 2705, 2704, 2756, 2757, 2809, 2808
1310, 2653, 2654, 2706, 2705, 2757, 2758, 2810, 2809
1311, 2654, 2655, 2707, 2706, 2758, 2759, 2811, 2810
1312, 2655, 2656, 2708, 2707, 2759, 2760, 2812, 2811
1313, 2656, 2657, 2709, 2708, 2760, 2761, 2813, 2812
1314, 2657, 2658, 2710, 2709, 2761, 2762, 2814, 2813
1315, 2658, 2659, 2711, 2710, 2762, 2763, 2815, 2814
1316, 2659, 2660, 2712, 2711, 2763, 2764, 2816, 2815
1317, 2660, 2661, 2713, 2712, 2764, 2765, 2817, 2816
1318, 2661, 2662, 2714, 2713, 2765, 2766, 2818, 2817
1319, 2662, 2663, 2715, 2714, 2766, 2767, 2819, 2818
1320, 2663, 2664, 2716, 2715, 2767, 2768, 2820, 2819
1321, 2664, 2665, 2717, 2716, 2768, 2769, 2821, 2820
1322, 2665, 2666, 2718, 2717, 2769, 2770, 2822, 2821
1323, 2666, 2667, 2719, 2718, 2770, 2771, 2823, 2822
1324, 2667, 2668, 2720, 2719, 2771, 2772, 2824, 2823
1325, 2668, 2669, 2721, 2720, 2772, 2773, 2825, 2824
1326, 2669, 2670, 2722, 2721, 2773, 2774, 2826, 2825
1327, 2670, 2671, 2723, 2722, 2774, 2775, 2827, 2826
1328, 2671, 2672, 2724, 2723, 2775, 2776, 2828, 2827
1329, 2672, 2673, 2725, 2724, 2776, 2777, 2829, 2828
1352, 2748, 2749, 2801, 2800, 2852, 2853, 2905, 2904
1353, 2749, 2750, 2802, 2801, 2853, 2854, 2906, 2905
1354, 2750, 2751, 2803, 2802, 2854, 2855, 2907, 2906
1355, 2751, 2752, 2804, 2803, 2855, 2856, 2908, 2907
1356, 2752, 2753, 2805, 2804, 2856, 2857, 2909, 2908
1357, 2753, 2754, 2806, 2805, 2857, 2858, 2910, 2909
1358, 2754, 2755, 2807, 2806, 2858, 2859, 2911, 2910
1359, 2755, 2756, 2808, 2807, 2859, 2860, 2912, 2911
1360, 2756, 2757, 2809, 2808, 2860, 2861, 2913, 2912
1361, 2757, 2758, 2810, 2809, 2861, 2862, 2914, 2913
1362, 2758, 2759, 2811, 2810, 2862, 2863, 2915, 2914
1363, 2759, 2760, 2812, 2811, 2863, 2864, 2916, 2915
1364, 2760, 2761, 2813, 2812, 2864, 2865, 2917, 2916
1365, 2761, 2762, 2814, 2813, 2865, 2866, 2918, 2917
1366, 2762, 2763, 2815, 2814, 2866, 2867, 2919, 2918
1367, 2763, 2764, 2816, 2815, 2867, 2868, 2920, 2919
1368, 2764, 2765, 2817, 2816, 2868, 2869, 2921, 2920
1369, 2765, 2766, 2818, 2817, 2869, 2870, 2922, 2921
1370, 2766, 2767, 2819, 2818, 2870, 2871, 2923, 2922
1371, 2767, 2768, 2820, 2819, 2871, 2872, 2924, 2923
1372, 2768, 2769, 2821, 2820, 2872, 2873, 2925, 2924
1373, 2769, 2770, 2822, 2821, 2873, 2874, 2926, 2925
1374, 2770, 2771, 2823, 2822, 2874, 2875, 2927, 2926
1375, 2771, 2772, 2824, 2823, 2875, 2876, 2928, 2927
1376, 2772, 2773, 2825, 2824, 2876, 2877, 2929, 2928
1377, 2773, 2774, 2826, 2825, 2877, 2878, 2930, 2929
1378, 2774, 2775, 2827, 2826, 2878, 2879, 2931, 2930
1379, 2775, 2776, 2828, 2827, 2879, 2880, 2932, 2931
1380, 2776, 2777, 2829, 2828, 2880, 2881, 2933, 2932
1403, 2852, 2853, 2905, 2904, 2956, 2957, 3009, 3008
1404, 2853, 2854, 2906, 2905, 2957, 2958, 3010, 3009
1405, 2854, 2855, 2907, 2906, 2958, 2959, 3011, 3010
1406, 2855, 2856, 2908, 2907, 2959, 2960, 3012, 3011
1407, 2856, 2857, 2909, 2908, 2960, 2961, 3013, 3012
1408, 2857, 2858, 2910, 2909, 2961, 2962, 3014, 3013
1409, 2858, 2859, 2911, 2910, 2962, 2963, 3015, 3014
1410, 2859, 2860, 2912, 2911, 2963, 2964, 3016, 3015
1411, 2860, 2861, 2913, 2912, 2964, 2965, 3017, 3016
1412, 2861, 2862, 2914, 2913, 2965, 2966, 3018, 3017
1413, 2862, 2863, 2915, 2914, 2966, 2967, 3019, 3018
1414, 2863, 2864, 2916, 2915, 2967, 2968, 3020, 3019
1415, 2864, 2865, 2917, 2916, 2968, 2969, 3021, 3020
1416, 2865, 2866, 2918, 2917, 2969, 2970, 3022, 3021
1417, 2866, 2867, 2919, 2918, 2970, 2971, 3023, 3022
1418, 2867, 2868, 2920, 2919, 2971, 2972, 3024, 3023
1419, 2868, 2869, 2921, 2920, 2972, 2973, 3025, 3024
1420, 2869, 2870, 2922, 2921, 2973, 2974, 3026, 3025
1421, 2870, 2871, 2923, 2922, 2974, 2975, 3027, 3026
1422, 2871, 2872, 2924, 2923, 2975, 2976, 3028, 3027
1423, 2872, 2873, 2925, 2924, 2976, 2977, 3029, 3028
1424, 2873, 2874, 2926, 2925, 2977, 2978, 3030, 3029
1425, 2874, 2875, 2927, 2926, 2978, 2979, 3031, 3030
1426, 2875, 2876, 2928, 2927, 2979, 2980, 3032, 3031
1427, 2876, 2877, 2929, 2928, 2980, 2981, 3033, 3032
1428, 2877, 2878, 2930, 2929, 2981, 2982, 3034, 3033
1429, 2878, 2879, 2931, 2930, 2982, 2983, 3035, 3034
1430, 2879, 2880, 2932, 2931, 2983, 2984, 3036, 3035
1431, 2880, 2881, 2933, 2932, 2984, 2985, 3037, 3036
1443, 2945, 2946, 2998, 2997, 3049, 3050, 3102, 3101
1444, 2946, 2947, 2999, 2998, 3050, 3051, 3103, 3102
1445, 2947, 2948, 3000, 2999, 3051, 3052, 3104, 3103
1446, 2948, 2949, 3001, 3000, 3052, 3053, 3105, 3104
1447, 2949, 2950, 3002, 3001, 3053, 3054, 3106, 3105
1448, 2950, 2951, 3003, 3002, 3054, 3055, 3107, 3106
1449, 2951, 2952, 3004, 3003, 3055, 3056, 3108, 3107
1450, 2952, 2953, 3005, 3004, 3056, 3057, 3109, 3108
1451, 2953, 2954, 3006, 3005, 3057, 3058, 3110, 3109
1452, 2954, 2955, 3007, 3006, 3058, 3059, 3111, 3110
1453, 2955, 2956, 3008, 3007, 3059, 3060, 3112, 3111
1454, 2956, 2957, 3009, 3008, 3060, 3061, 3113, 3112
1455, 2957, 2958, 3010, 3009, 3061, 3062, 3114, 3113
1456, 2958, 2959, 3011, 3010, 3062, 3063, 3115, 3114
1457, 2959, 2960, 3012, 3011, 3063, 3064, 3116, 3115
1458, 2960, 2961, 3013, 3012, 3064, 3065, 3117, 3116
1459, 2961, 2962, 3014, 3013, 3065, 3066, 3118, 3117
1460, 2962, 2963, 3015, 3014, 3066, 3067, 3119, 3118
1461, 2963, 2964, 3016, 3015, 3067, 3068, 3120, 3119
1462, 2964, 2965, 3017, 3016, 3068, 3069, 3121, 3120
1463, 2965, 2966, 3018, 3017, 3069, 3070, 3122, 3121
1464, 2966, 2967, 3019, 3018, 3070, 3071, 3123, 3122
1465, 2967, 2968, 3020, 3019, 3071, 3072, 3124, 3123
1466, 2968, 2969, 3021, 3020, 3072, 3073, 3125, 3124
1467, 2969, 2970, 3022, 3021, 3073, 3074, 3126, 3125
1468, 2970, 2971, 3023, 3022, 3074, 3075, 3127, 3126
1469, 2971, 2972, 3024, 3023, 3075, 3076, 3128, 3127
1470, 2972, 2973, 3025, 3024, 3076, 3077, 3129, 3128
1471, 2973, 2974, 3026, 3025, 3077, 3078, 3130, 3129
1472, 2974, 2975, 3027, 3026, 3078, 3079, 3131, 3130
1473, 2975, 2976, 3028, 3027, 3079, 3080, 3132, 3131
1474, 2976, 2977, 3029, 3028, 3080, 3081, 3133, 3132
1475, 2977, 2978, 3030, 3029, 3081, 3082, 3134, 3133
1476, 2978, 2979, 3031, 3030, 3082, 3083, 3135, 3134
1477, 2979, 2980, 3032, 3031, 3083, 3084, 3136, 3135
1478, 2980, 2981, 3033, 3032, 3084, 3085, 3137, 3136
1479, 2981, 2982, 3034, 3033, 3085, 3086, 3138, 3137
1480, 2982, 2983, 3035, 3034, 3086, 3087, 3139, 3138
1481, 2983, 2984, 3036, 3035, 3087, 3088, 3140, 3139
1482, 2984, 2985, 3037, 3036, 3088, 3089, 3141, 3140
1483, 2985, 2986, 3038, 3037, 3089, 3090, 3142, 3141
1484, 2986, 2987, 3039, 3038, 3090, 3091, 3143, 3142
1485, 2987, 2988, 3040, 3039, 3091, 3092, 3144, 3143
1486, 2988, 2989, 3041, 3040, 3092, 3093, 3145, 3144
1487, 2989, 2990, 3042, 3041, 3093, 3094, 3146, 3145
1488, 2990, 2991, 3043, 3042, 3094, 3095, 3147, 3146
1489, 2991, 2992, 3044, 3043, 3095, 3096, 3148, 3147
1490, 2992, 2993, 3045, 3044, 3096, 3097, 3149, 3148
1491, 2993, 2994, 3046, 3045, 3097, 3098, 3150, 3149
1492, 2994, 2995, 3047, 3046, 3098, 3099, 3151, 3150
1493, 2995, 2996, 3048, 3047, 3099, 3100, 3152, 3151
1494, 3049, 3050, 3102, 3101, 3153, 3154, 3206, 3205
1495, 3050, 3051, 3103, 3102, 3154, 3155, 3207, 3206
1496, 3051, 3052, 3104, 3103, 3155, 3156, 3208, 3207
1497, 3052, 3053, 3105, 3104, 3156, 3157, 3209, 3208
1498, 3053, 3054, 3106, 3105, 3157, 3158, 3210, 3209
1499, 3054, 3055, 3107, 3106, 3158, 3159, 3211, 3210
1500, 3055, 3056, 3108, 3107, 3159, 3160, 3212, 3211
1501, 3056, 3057, 3109, 3108, 3160, 3161, 3213, 3212
1502, 3057, 3058, 3110, 3109, 3161, 3162, 3214, 3213
1503, 3058, 3059, 3111, 3110, 3162, 3163, 3215, 3214
1504, 3059, 3060, 3112, 3111, 3163, 3164, 3216, 3215
1505, 3060, 3061, 3113, 3112, 3164, 3165, 3217, 3216
1506, 3061, 3062, 3114, 3113, 3165, 3166, 3218, 3217
1507, 3062, 3063, 3115, 3114, 3166, 3167, 3219, 3218
1508, 3063, 3064, 3116, 3115, 3167, 3168, 3220, 3219
1509, 3064, 3065, 3117, 3116, 3168, 3169, 3221, 3220
1510, 3065, 3066, 3118, 3117, 3169, 3170, 3222, 3221
1511, 3066, 3067, 3119, 3118, 3170, 3171, 3223, 3222
1512, 3067, 3068, 3120, 3119, 3171, 3172, 3224, 3223
1513, 3068, 3069, 3121, 3120, 3172, 3173, 3225, 3224
1514, 3069, 3070, 3122, 3121, 3173, 3174, 3226, 3225
1515, 3070, 3071, 3123, 3122, 3174, 3175, 3227, 3226
1516, 3071, 3072, 3124, 3123, 3175, 3176, 3228, 3227
1517, 3072, 3073, 3125, 3124, 3176, 3177, 3229, 3228
1518, 3073, 3074, 3126, 3125, 3177, 3178, 3230, 3229
1519, 3074, 3075, 3127, 3126, 3178, 3179, 3231, 3230
1520, 3075, 3076, 3128, 3127, 3179, 3180, 3232, 3231
1521, 3076, 3077, 3129, 3128, 3180, 3181, 3233, 3232
1522, 3077, 3078, 3130, 3129, 3181, 3182, 3234, 3233
1523, 3078, 3079, 3131, 3130, 3182, 3183, 3235, 3234
1524, 3079, 3080, 3132, 3131, 3183, 3184, 3236, 3235
1525, 3080, 3081, 3133, 3132, 3184, 3185, 3237, 3236
1526, 3081, 3082, 3134, 3133, 3185, 3186, 3238, 3237
1527, 3082, 3083, 3135, 3134, 3186, 3187, 3239, 3238
1528, 3083, 3084, 3136, 3135, 3187, 3188, 3240, 3239
1529, 3084, 3085, 3137, 3136, 3188, 3189, 3241, 3240
1530, 3085, 3086, 3138, 3137, 3189, 3190, 3242, 3241
1531, 3086, 3087, 3139, 3138, 3190, 3191, 3243, 3242
1532, 3087, 3088, 3140, 3139, 3191, 3192, 3244, 3243
1533, 3088, 3089, 3141, 3140, 3192, 3193, 3245, 3244
1534, 3089, 3090, 3142, 3141, 3193, 3194, 3246, 3245
1535, 3090, 3091, 3143, 3142, 3194, 3195, 3247, 3246
1536, 3091, 3092, 3144, 3143, 3195, 3196, 3248, 3247
1537, 3092, 3093, 3145, 3144, 3196, 3197, 3249, 3248
1538, 3093, 3094, 3146, 3145, 3197, 3198, 3250, 3249
1539, 3094, 3095, 3147, 3146, 3198, 3199, 3251, 3250
1540, 3095, 3096, 3148, 3147, 3199, 3200, 3252, 3251
1541, 3096, 3097, 3149, 3148, 3200, 3201, 3253, 3252
1542, 3097, 3098, 3150, 3149, 3201, 3202, 3254, 3253
1543, 3098, 3099, 3151, 3150, 3202, 3203, 3255, 3254
1544, 3099, 3100, 3152, 3151, 3203, 3204, 3256, 3255
1545, 3153, 3154, 3206, 3205, 3257, 3258, 3310, 3309
1546, 3154, 3155, 3207, 3206, 3258, 3259, 3311, 3310
1547, 3155, 3156, 3208, 3207, 3259, 3260, 3312, 3311
1548, 3156, 3157, 3209, 3208, 3260, 3261, 3313, 3312
1549, 3157, 3158, 3210, 3209, 3261, 3262, 3314, 3313
1550, 3158, 3159, 3211, 3210, 3262, 3263, 3315, 3314
1551, 3159, 3160, 3212, 3211, 3263, 3264, 3316, 3315
1552, 3160, 3161, 3213, 3212, 3264, 3265, 3317, 3316
1553, 3161, 3162, 3214, 3213, 3265, 3266, 3318, 3317
1554, 3162, 3163, 3215, 3214, 3266, 3267, 3319, 3318
1555, 3163, 3164, 3216, 3215, 3267, 3268, 3320, 3319
1556, 3164, 3165, 3217, 3216, 3268, 3269, 3321, 3320
1557, 3165, 3166, 3218, 3217, 3269, 3270, 3322, 3321
1558, 3166, 3167, 3219, 3218, 3270, 3271, 3323, 3322
1559, 3167, 3168, 3220, 3219, 3271, 3272, 3324, 3323
1560, 3168, 3169, 3221, 3220, 3272, 3273, 3325, 3324
1561, 3169, 3170, 3222, 3221, 3273, 3274, 3326, 3325
1562, 3170, 3171, 3223, 3222, 3274, 3275, 3327, 3326
1563, 3171, 3172, 3224, 3223, 3275, 3276, 3328, 3327
1564, 3172, 3173, 3225, 3224, 3276, 3277, 3329, 3328
1565, 3173, 3174, 3226, 3225, 3277, 3278, 3330, 3329
1566, 3174, 3175, 3227, 3226, 3278, 3279, 3331, 3330
1567, 3175, 3176, 3228, 3227, 3279, 3280, 3332, 3331
1568, 3176, 3177, 3229, 3228, 3280, 3281, 3333, 3332
1569, 3177, 3178, 3230, 3229, 3281, 3282, 3334, 3333
1570, 3178, 3179, 3231, 3230, 3282, 3283, 3335, 3334
1571, 3179, 3180, 3232, 3231, 3283, 3284, 3336, 3335
1572, 3180, 3181, 3233, 3232, 3284, 3285, 3337, 3336
1573, 3181, 3182, 3234, 3233, 3285, 3286, 3338, 3337
1574, 3182, 3183, 3235, 3234, 3286, 3287, 3339, 3338
1575, 3183, 3184, 3236, 3235, 3287, 3288, 3340, 3339
1576, 3184, 3185, 3237, 3236, 3288, 3289, 3341, 3340
1577, 3185, 3186, 3238, 3237, 3289, 3290, 3342, 3341
1578, 3186, 3187, 3239, 3238, 3290, 3291, 3343, 3342
1579, 3187, 3188, 3240, 3239, 3291, 3292, 3344, 3343
1580, 3188, 3189, 3241, 3240, 3292, 3293, 3345, 3344
1581, 3189, 3190, 3242, 3241, 3293, 3294, 3346, 3345
1582, 3190, 3191, 3243, 3242, 3294, 3295, 3347, 3346
1583, 3191, 3192, 3244, 3243, 3295, 3296, 3348, 3347
1584, 3192, 3193, 3245, 3244, 3296, 3297, 3349, 3348
1585, 3193, 3194, 3246, 3245, 3297, 3298, 3350, 3349
1586, 3194, 3195, 3247, 3246, 3298, 3299, 3351, 3350
1587, 3195, 3196, 3248, 3247, 3299, 3300, 3352, 3351
1588, 3196, 3197, 3249, 3248, 3300, 3301, 3353, 3352
1589, 3197, 3198, 3250, 3249, 3301, 3302, 3354, 3353
1590, 3198, 3199, 3251, 3250, 3302, 3303, 3355, 3354
1591, 3199, 3200, 3252, 3251, 3303, 3304, 3356, 3355
1592, 3200, 3201, 3253, 3252, 3304, 3305, 3357, 3356
1593, 3201, 3202, 3254, 3253, 3305, 3306, 3358, 3357
1594, 3202, 3203, 3255, 3254, 3306, 3307, 3359, 3358
1595, 3203, 3204, 3256, 3255, 3307, 3308, 3360, 3359
1596, 3257, 3258, 3310, 3309, 3361, 3362, 3414, 3413
1597, 3258, 3259, 3311, 3310, 3362, 3363, 3415, 3414
1598, 3259, 3260, 3312, 3311, 3363, 3364, 3416, 3415
1599, 3260, 3261, 3313, 3312, 3364, 3365, 3417, 3416
1600, 3261, 3262, 3314, 3313, 3365, 3366, 3418, 3417
1601, 3262, 3263, 3315, 3314, 3366, 3367, 3419, 3418
1602, 3263, 3264, 3316, 3315, 3367, 3368, 3420, 3419
1603, 3264, 3265, 3317, 3316, 3368, 3369, 3421, 3420
1604, 3265, 3266, 3318, 3317, 3369, 3370, 3422, 3421
1605, 3266, 3267, 3319, 3318, 3370, 3371, 3423, 3422
1606, 3267, 3268, 3320, 3319, 3371, 3372, 3424, 3423
1607, 3268, 3269, 3321, 3320, 3372, 3373, 3425, 3424
1608, 3269, 3270, 3322, 3321, 3373, 3374, 3426, 3425
1609, 3270, 3271, 3323, 3322, 3374, 3375, 3427, 3426
1610, 3271, 3272, 3324, 3323, 3375, 3376, 3428, 3427
1611, 3272, 3273, 3325, 3324, 3376, 3377, 3429, 3428
1612, 3273, 3274, 3326, 3325, 3377, 3378, 3430, 3429
1613, 3274, 3275, 3327, 3326, 3378, 3379, 3431, 3430
1614, 3275, 3276, 3328, 3327, 3379, 3380, 3432, 3431
1615, 3276, 3277, 3329, 3328, 3380, 3381, 3433, 3432
1616, 3277, 3278, 3330, 3329, 3381, 3382, 3434, 3433
1617, 3278, 3279, 3331, 3330, 3382, 3383, 3435, 3434
1618, 3279, 3280, 3332, 3331, 3383, 3384, 3436, 3435
1619, 3280, 3281, 3333, 3332, 3384, 3385, 3437, 3436
1620, 3281, 3282, 3334, 3333, 3385, 3386, 3438, 3437
1621, 3282, 3283, 3335, 3334, 3386, 3387, 3439, 3438
1622, 3283, 3284, 3336, 3335, 3387, 3388, 3440, 3439
1623, 3284, 3285, 3337, 3336, 3388, 3389, 3441, 3440
1624, 3285, 3286, 3338, 3337, 3389, 3390, 3442, 3441
1625, 3286, 3287, 3339, 3338, 3390, 3391, 3443, 3442
1626, 3287, 3288, 3340, 3339, 3391, 3392, 3444, 3443
1627, 3288, 3289, 3341, 3340, 3392, 3393, 3445, 3444
1628, 3289, 3290, 3342, 3341, 3393, 3394, 3446, 3445
1629, 3290, 3291, 3343, 3342, 3394, 3395, 3447, 3446
1630, 3291, 3292, 3344, 3343, 3395, 3396, 3448, 3447
1631, 3292, 3293, 3345, 3344, 3396, 3397, 3449, 3448
1632, 3293, 3294, 3346, 3345, 3397, 3398, 3450, 3449
1633, 3294, 3295, 3347, 3346, 3398, 3399, 3451, 3450
1634, 3295, 3296, 3348, 3347, 3399, 3400, 3452, 3451
1635, 3296, 3297, 3349, 3348, 3400, 3401, 3453, 3452
1636, 3297, 3298, 3350, 3349, 3401, 3402, 3454, 3453
1637, 3298, 3299, 3351, 3350, 3402, 3403, 3455, 3454
1638, 3299, 3300, 3352, 3351, 3403, 3404, 3456, 3455
1639, 3300, 3301, 3353, 3352, 3404, 3405, 3457, 3456
1640, 3301, 3302, 3354, 3353, 3405, 3406, 3458, 3457
1641, 3302, 3303, 3355, 3354, 3406, 3407, 3459, 3458
1642, 3303, 3304, 3356, 3355, 3407, 3408, 3460, 3459
1643, 3304, 3305, 3357, 3356, 3408, 3409, 3461, 3460
1644, 3305, 3306, 3358, 3357, 3409, 3410, 3462, 3461
1645, 3306, 3307, 3359, 3358, 3410, 3411, 3463, 3462
1646, 3307, 3308, 3360, 3359, 3411, 3412, 3464, 3463
1647, 3361, 3362, 3414, 3413, 3465, 3466, 3518, 3517
1648, 3362, 3363, 3415, 3414, 3466, 3467, 3519, 3518
1649, 3363, 3364, 3416, 3415, 3467, 3468, 3520, 3519
1650, 3364, 3365, 3417, 3416, 3468, 3469, 3521, 3520
1651, 3365, 3366, 3418, 3417, 3469, 3470, 3522, 3521
1652, 3366, 3367, 3419, 3418, 3470, 3471, 3523, 3522
1653, 3367, 3368, 3420, 3419, 3471, 3472, 3524, 3523
1654, 3368, 3369, 3421, 3420, 3472, 3473, 3525, 3524
1655, 3369, 3370, 3422, 3421, 3473, 3474, 3526, 3525
1656, 3370, 3371, 3423, 3422, 3474, 3475, 3527, 3526
1657, 3371, 3372, 3424, 3423, 3475, 3476, 3528, 3527
1658, 3372, 3373, 3425, 3424, 3476, 3477, 3529, 3528
1659, 3373, 3374, 3426, 3425, 3477, 3478, 3530, 3529
1660, 3374, 3375, 3427, 3426, 3478, 3479, 3531, 3530
1661, 3375, 3376, 3428, 3427, 3479, 3480, 3532, 3531
1662, 3376, 3377, 3429, 3428, 3480, 3481, 3533, 3532
1663, 3377, 3378, 3430, 3429, 3481, 3482, 3534, 3533
1664, 3378, 3379, 3431, 3430, 3482, 3483, 3535, 3534
1665, 3379, 3380, 3432, 3431, 3483, 3484, 3536, 3535
1666, 3380, 3381, 3433, 3432, 3484, 3485, 3537, 3536
1667, 3381, 3382, 3434, 3433, 3485, 3486, 3538, 3537
1668, 3382, 3383, 3435, 3434, 3486, 3487, 3539, 3538
1669, 3383, 3384, 3436, 3435, 3487, 3488, 3540, 3539
1670, 3384, 3385, 3437, 3436, 3488, 3489, 3541, 3540
1671, 3385, 3386, 3438, 3437, 3489, 3490, 3542, 3541
1672, 3386, 3387, 3439, 3438, 3490, 3491, 3543, 3542
1673, 3387, 3388, 3440, 3439, 3491, 3492, 3544, 3543
1674, 3388, 3389, 3441, 3440, 3492, 3493, 3545, 3544
1675, 3389, 3390, 3442, 3441, 3493, 3494, 3546, 3545
1676, 3390, 3391, 3443, 3442, 3494, 3495, 3547, 3546
1677, 3391, 3392, 3444, 3443, 3495, 3496, 3548, 3547
1678, 3392, 3393, 3445, 3444, 3496, 3497, 3549, 3548
1679, 3393, 3394, 3446, 3445, 3497, 3498, 3550, 3549
1680, 3394, 3395, 3447, 3446, 3498, 3499, 3551, 3550
1681, 3395, 3396, 3448, 3447, 3499, 3500, 3552, 3551
1682, 3396, 3397, 3449, 3448, 3500, 3501, 3553, 3552
1683, 3397, 3398, 3450, 3449, 3501, 3502, 3554, 3553
1684, 3398, 3399, 3451, 3450, 3502, 3503, 3555, 3554
1685, 3399, 3400, 3452, 3451, 3503, 3504, 3556, 3555
1686, 3400, 3401, 3453, 3452, 3504, 3505, 3557, 3556
1687, 3401, 3402, 3454, 3453, 3505, 3506, 3558, 3557
1688, 3402, 3403, 3455, 3454, 3506, 3507, 3559, 3558
1689, 3403, 3404, 3456, 3455, 3507, 3508, 3560, 3559
1690, 3404, 3405, 3457, 3456, 3508, 3509, 3561, 3560
1691, 3405, 3406, 3458, 3457, 3509, 3510, 3562, 3561
1692, 3406, 3407, 3459, 3458, 3510, 3511, 3563, 3562
1693, 3407, 3408, 3460, 3459, 3511, 3512, 3564, 3563
1694, 3408, 3409, 3461, 3460, 3512, 3513, 3565, 3564
1695, 3409, 3410, 3462, 3461, 3513, 3514, 3566, 3565
1696, 3410, 3411, 3463, 3462, 3514, 3515, 3567, 3566
1697, 3411, 3412, 3464, 3463, 3515, 3516, 3568, 3567
1698, 3465, 3466, 3518, 3517, 3569, 3570, 3622, 3621
1699, 3466, 3467, 3519, 3518, 3570, 3571, 3623, 3622
1700, 3467, 3468, 3520, 3519, 3571, 3572, 3624, 3623
1701, 3468, 3469, 3521, 3520, 3572, 3573, 3625, 3624
1702, 3469, 3470, 3522, 3521, 3573, 3574, 3626, 3625
1703, 3470, 3471, 3523, 3522, 3574, 3575, 3627, 3626
1704, 3471, 3472, 3524, 3523, 3575, 3576, 3628, 3627
1705, 3472, 3473, 3525, 3524, 3576, 3577, 3629, 3628
1706, 3473, 3474, 3526, 3525, 3577, 3578, 3630, 3629
1707, 3474, 3475, 3527, 3526, 3578, 3579, 3631, 3630
1708, 3475, 3476, 3528, 3527, 3579, 3580, 3632, 3631
1709, 3476, 3477, 3529, 3528, 3580, 3581, 3633, 3632
1710, 3477, 3478, 3530, 3529, 3581, 3582, 3634, 3633
1711, 3478, 3479, 3531, 3530, 3582, 3583, 3635, 3634
1712, 3479, 3480, 3532, 3531, 3583, 3584, 3636, 3635
1713, 3480, 3481, 3533, 3532, 3584, 3585, 3637, 3636
1714, 3481, 3482, 3534, 3533, 3585, 3586, 3638, 3637
1715, 3482, 3483, 3535, 3534, 3586, 3587, 3639, 3638
1716, 3483, 3484, 3536, 3535, 3587, 3588, 3640, 3639
1717, 3484, 3485, 3537, 3536, 3588, 3589, 3641, 3640
1718, 3485, 3486, 3538, 3537, 3589, 3590, 3642, 3641
1719, 3486, 3487, 3539, 3538, 3590, 3591, 3643, 3642
1720, 3487, 3488, 3540, 3539, 3591, 3592, 3644, 3643
1721, 3488, 3489, 3541, 3540, 3592, 3593, 3645, 3644
1722, 3489, 3490, 3542, 3541, 3593, 3594, 3646, 3645
1723, 3490, 3491, 3543, 3542, 3594, 3595, 3647, 3646
1724, 3491, 3492, 3544, 3543, 3595, 3596, 3648, 3647
1725, 3492, 3493, 3545, 3544, 3596, 3597, 3649, 3648
1726, 3493, 3494, 3546, 3545, 3597, 3598, 3650, 3649
1727, 3494, 3495, 3547, 3546, 3598, 3599, 3651, 3650
1728, 3495, 3496, 3548, 3547, 3599, 3600, 3652, 3651
1729, 3496, 3497, 3549, 3548, 3600, 3601, 3653, 3652
1730, 3497, 3498, 3550, 3549, 3601, 3602, 3654, 3653
1731, 3498, 3499, 3551, 3550, 3602, 3603, 3655, 3654
1732, 3499, 3500, 3552, 3551, 3603, 3604, 3656, 3655
1733, 3500, 3501, 3553, 3552, 3604, 3605, 3657, 3656
1734, 3501, 3502, 3554, 3553, 3605, 3606, 3658, 3657
1735, 3502, 3503, 3555, 3554, 3606, 3607, 3659, 3658
1736, 3503, 3504, 3556, 3555, 3607, 3608, 3660, 3659
1737, 3504, 3505, 3557, 3556, 3608, 3609, 3661, 3660
1738, 3505, 3506, 3558, 3557, 3609, 3610, 3662, 3661
1739, 3506, 3507, 3559, 3558, 3610, 3611, 3663, 3662
1740, 3507, 3508, 3560, 3559, 3611, 3612, 3664, 3663
1741, 3508, 3509, 3561, 3560, 3612, 3613, 3665, 3664
1742, 3509, 3510, 3562, 3561, 3613, 3614, 3666, 3665
1743, 3510, 3511, 3563, 3562, 3614, 3615, 3667, 3666
1744, 3511, 3512, 3564, 3563, 3615, 3616, 3668, 3667
1745, 3512, 3513, 3565, 3564, 3616, 3617, 3669, 3668
1746, 3513, 3514, 3566, 3565, 3617, 3618, 3670, 3669
1747, 3514, 3515, 3567, 3566, 3618, 3619, 3671, 3670
1748, 3515, 3516, 3568, 3567, 3619, 3620, 3672, 3671
1749, 3569, 3570, 3622, 3621, 3673, 3674, 3726, 3725
1750, 3570, 3571, 3623, 3622, 3674, 3675, 3727, 3726
1751, 3571, 3572, 3624, 3623, 3675, 3676, 3728, 3727
1752, 3572, 3573, 3625, 3624, 3676, 3677, 3729, 3728
1753, 3573, 3574, 3626, 3625, 3677, 3678, 3730, 3729
1754, 3574, 3575, 3627, 3626, 3678, 3679, 3731, 3730
1755, 3575, 3576, 3628, 3627, 3679, 3680, 3732, 3731
1756, 3576, 3577, 3629, 3628, 3680, 3681, 3733, 3732
1757, 3577, 3578, 3630, 3629, 3681, 3682, 3734, 3733
1758, 3578, 3579, 3631, 3630, 3682, 3683, 3735, 3734
1759, 3579, 3580, 3632, 3631, 3683, 3684, 3736, 3735
1760, 3580, 3581, 3633, 3632, 3684, 3685, 3737, 3736
1761, 3581, 3582, 3634, 3633, 3685, 3686, 3738, 3737
1762, 3582, 3583, 3635, 3634, 3686, 3687, 3739, 3738
1763, 3583, 3584, 3636, 3635, 3687, 3688, 3740, 3739
1764, 3584, 3585, 3637, 3636, 3688, 3689, 3741, 3740
1765, 3585, 3586, 3638, 3637, 3689, 3690, 3742, 3741
1766, 3586, 3587, 3639, 3638, 3690, 3691, 3743, 3742
1767, 3587, 3588, 3640, 3639, 3691, 3692, 3744, 3743
1768, 3588, 3589, 3641, 3640, 3692, 3693, 3745, 3744
1769, 3589, 3590, 3642, 3641, 3693, 3694, 3746, 3745
1770, 3590, 3591, 3643, 3642, 3694, 3695, 3747, 3746
1771, 3591, 3592, 3644, 3643, 3695, 3696, 3748, 3747
1772, 3592, 3593, 3645, 3644, 3696, 3697, 3749, 3748
1773, 3593, 3594, 3646, 3645, 3697, 3698, 3750, 3749
1774, 3594, 3595, 3647, 3646, 3698, 3699, 3751, 3750
1775, 3595, 3596, 3648, 3647, 3699, 3700, 3752, 3751
1776, 3596, 3597, 3649, 3648, 3700, 3701, 3753, 3752
1777, 3597, 3598, 3650, 3649, 3701, 3702, 3754, 3753
1778, 3598, 3599, 3651, 3650, 3702, 3703, 3755, 3754
1779, 3599, 3600, 3652, 3651, 3703, 3704, 3756, 3755
1780, 3600, 3601, 3653, 3652, 3704, 3705, 3757, 3756
1781, 3601, 3602, 3654, 3653, 3705, 3706, 3758, 3757
1782, 3602, 3603, 3655, 3654, 3706, 3707, 3759, 3758
1783, 3603, 3604, 3656, 3655, 3707, 3708, 3760, 3759
1784, 3604, 3605, 3657, 3656, 3708, 3709, 3761, 3760
1785, 3605, 3606, 3658, 3657, 3709, 3710, 3762, 3761
1786, 3606, 3607, 3659, 3658, 3710, 3711, 3763, 3762
1787, 3607, 3608, 3660, 3659, 3711, 3712, 3764, 3763
1788, 3608, 3609, 3661, 3660, 3712, 3713, 3765, 3764
1789, 3609, 3610, 3662, 3661, 3713, 3714, 3766, 3765
1790, 3610, 3611, 3663, 3662, 3714, 3715, 3767, 3766
1791, 3611, 3612, 3664, 3663, 3715, 3716, 3768, 3767
1792, 3612, 3613, 3665, 3664, 3716, 3717, 3769, 3768
1793, 3613, 3614, 3666, 3665, 3717, 3718, 3770, 3769
1794, 3614, 3615, 3667, 3666, 3718, 3719, 3771, 3770
1795, 3615, 3616, 3668, 3667, 3719, 3720, 3772, 3771
1796, 3616, 3617, 3669, 3668, 3720, 3721, 3773, 3772
1797, 3617, 3618, 3670, 3669, 3721, 3722, 3774, 3773
1798, 3618, 3619, 3671, 3670, 3722, 3723, 3775, 3774
1799, 3619, 3620, 3672, 3671, 3723, 3724, 3776, 3775
1800, 3673, 3674, 3726, 3725, 3777, 3778, 3830, 3829
1801, 3674, 3675, 3727, 3726, 3778, 3779, 3831, 3830
1802, 3675, 3676, 3728, 3727, 3779, 3780, 3832, 3831
1803, 3676, 3677, 3729, 3728, 3780, 3781, 3833, 3832
1804, 3677, 3678, 3730, 3729, 3781, 3782, 3834, 3833
1805, 3678, 3679, 3731, 3730, 3782, 3783, 3835, 3834
1806, 3679, 3680, 3732, 3731, 3783, 3784, 3836, 3835
1807, 3680, 3681, 3733, 3732, 3784, 3785, 3837, 3836
1808, 3681, 3682, 3734, 3733, 3785, 3786, 3838, 3837
1809, 3682, 3683, 3735, 3734, 3786, 3787, 3839, 3838
1810, 3683, 3684, 3736, 3735, 3787, 3788, 3840, 3839
1811, 3684, 3685, 3737, 3736, 3788, 3789, 3841, 3840
1812, 3685, 3686, 3738, 3737, 3789, 3790, 3842, 3841
1813, 3686, 3687, 3739, 3738, 3790, 3791, 3843, 3842
1814, 3687, 3688, 3740, 3739, 3791, 3792, 3844, 3843
1815, 3688, 3689, 3741, 3740, 3792, 3793, 3845, 3844
1816, 3689, 3690, 3742, 3741, 3793, 3794, 3846, 3845
1817, 3690, 3691, 3743, 3742, 3794, 3795, 3847, 3846
1818, 3691, 3692, 3744, 3743, 3795, 3796, 3848, 3847
1819, 3692, 3693, 3745, 3744, 3796, 3797, 3849, 3848
1820, 3693, 3694, 3746, 3745, 3797, 3798, 3850, 3849
1821, 3694, 3695, 3747, 3746, 3798, 3799, 3851, 3850
1822, 3695, 3696, 3748, 3747, 3799, 3800, 3852, 3851
1823, 3696, 3697, 3749, 3748, 3800, 3801, 3853, 3852
1824, 3697, 3698, 3750, 3749, 3801, 3802, 3854, 3853
1825, 3698, 3699, 3751, 3750, 3802, 3803, 3855, 3854
1826, 3699, 3700, 3752, 3751, 3803, 3804, 3856, 3855
1827, 3700, 3701, 3753, 3752, 3804, 3805, 3857, 3856
1828, 3701, 3702, 3754, 3753, 3805, 3806, 3858, 3857
1829, 3702, 3703, 3755, 3754, 3806, 3807, 3859, 3858
1830, 3703, 3704, 3756, 3755, 3807, 3808, 3860, 3859
1831, 3704, 3705, 3757, 3756, 3808, 3809, 3861, 3860
1832, 3705, 3706, 3758, 3757, 3809, 3810, 3862, 3861
1833, 3706, 3707, 3759, 3758, 3810, 3811, 3863, 3862
1834, 3707, 3708, 3760, 3759, 3811, 3812, 3864, 3863
1835, 3708, 3709, 3761, 3760, 3812, 3813, 3865, 3864
1836, 3709, 3710, 3762, 3761, 3813, 3814, 3866, 3865
1837, 3710, 3711, 3763, 3762, 3814, 3815, 3867, 3866
1838, 3711, 3712, 3764, 3763, 3815, 3816, 3868, 3867
1839, 3712, 3713, 3765, 3764, 3816, 3817, 3869, 3868
1840, 3713, 3714, 3766, 3765, 3817, 3818, 3870, 3869
1841, 3714, 3715, 3767, 3766, 3818, 3819, 3871, 3870
1842, 3715, 3716, 3768, 3767, 3819, 3820, 3872, 3871
1843, 3716, 3717, 3769, 3768, 3820, 3821, 3873, 3872
1844, 3717, 3718, 3770, 3769, 3821, 3822, 3874, 3873
1845, 3718, 3719, 3771, 3770, 3822, 3823, 3875, 3874
1846, 3719, 3720, 3772, 3771, 3823, 3824, 3876, 3875
1847, 3720, 3721, 3773, 3772, 3824, 3825, 3877, 3876
1848, 3721, 3722, 3774, 3773, 3825, 3826, 3878, 3877
1849, 3722, 3723, 3775, 3774, 3826, 3827, 3879, 3878
1850, 3723, 3724, 3776, 3775, 3827, 3828, 3880, 3879
1851, 3777, 3778, 3830, 3829, 3881, 3882, 3934, 3933
1852, 3778, 3779, 3831, 3830, 3882, 3883, 3935, 3934
1853, 3779, 3780, 3832, 3831, 3883, 3884, 3936, 3935
1854, 3780, 3781, 3833, 3832, 3884, 3885, 3937, 3936
1855, 3781, 3782, 3834, 3833, 3885, 3886, 3938, 3937
1856, 3782, 3783, 3835, 3834, 3886, 3887, 3939, 3938
1857, 3783, 3784, 3836, 3835, 3887, 3888, 3940, 3939
1858, 3784, 3785, 3837, 3836, 3888, 3889, 3941, 3940
1859, 3785, 3786, 3838, 3837, 3889, 3890, 3942, 3941
1860, 3786, 3787, 3839, 3838, 3890, 3891, 3943, 3942
1861, 3787, 3788, 3840, 3839, 3891, 3892, 3944, 3943
1862, 3788, 3789, 3841, 3840, 3892, 3893, 3945, 3944
1863, 3789, 3790, 3842, 3841, 3893, 3894, 3946, 3945
1864, 3790, 3791, 3843, 3842, 3894, 3895, 3947, 3946
1865, 3791, 3792, 3844, 3843, 3895, 3896, 3948, 3947
1866, 3792, 3793, 3845, 3844, 3896, 3897, 3949, 3948
1867, 3793, 3794, 3846, 3845, 3897, 3898, 3950, 3949
1868, 3794, 3795, 3847, 3846, 3898, 3899, 3951, 3950
1869, 3795, 3796, 3848, 3847, 3899, 3900, 3952, 3951
1870, 3796, 3797, 3849, 3848, 3900, 3901, 3953, 3952
1871, 3797, 3798, 3850, 3849, 3901, 3902, 3954, 3953
1872, 3798, 3799, 3851, 3850, 3902, 3903, 3955, 3954
1873, 3799, 3800, 3852, 3851, 3903, 3904, 3956, 3955
1874, 3800, 3801, 3853, 3852, 3904, 3905, 3957, 3956
1875, 3801, 3802, 3854, 3853, 3905, 3906, 3958, 3957
1876, 3802, 3803, 3855, 3854, 3906, 3907, 3959, 3958
1877, 3803, 3804, 3856, 3855, 3907, 3908, 3960, 3959
1878, 3804, 3805, 3857, 3856, 3908, 3909, 3961, 3960
1879, 3805, 3806, 3858, 3857, 3909, 3910, 3962, 3961
1880, 3806, 3807, 3859, 3858, 3910, 3911, 3963, 3962
1881, 3807, 3808, 3860, 3859, 3911, 3912, 3964, 3963
1882, 3808, 3809, 3861, 3860, 3912, 3913, 3965, 3964
1883, 3809, 3810, 3862, 3861, 3913, 3914, 3966, 3965
1884, 3810, 3811, 3863, 3862, 3914, 3915, 3967, 3966
1885, 3811, 3812, 3864, 3863, 3915, 3916, 3968, 3967
1886, 3812, 3813, 3865, 3864, 3916, 3917, 3969, 3968
1887, 3813, 3814, 3866, 3865, 3917, 3918, 3970, 3969
1888, 3814, 3815, 3867, 3866, 3918, 3919, 3971, 3970
1889, 3815, 3816, 3868, 3867, 3919, 3920, 3972, 3971
1890, 3816, 3817, 3869, 3868, 3920, 3921, 3973, 3972
1891, 3817, 3818, 3870, 3869, 3921, 3922, 3974, 3973
1892, 3818, 3819, 3871, 3870, 3922, 3923, 3975, 3974
1893, 3819, 3820, 3872, 3871, 3923, 3924, 3976, 3975
1894, 3820, 3821, 3873, 3872, 3924, 3925, 3977, 3976
1895, 3821, 3822, 3874, 3873, 3925, 3926, 3978, 3977
1896, 3822, 3823, 3875, 3874, 3926, 3927, 3979, 3978
1897, 3823, 3824, 3876, 3875, 3927, 3928, 3980, 3979
1898, 3824, 3825, 3877, 3876, 3928, 3929, 3981, 3980
1899, 3825, 3826, 3878, 3877, 3929, 3930, 3982, 3981
1900, 3826, 3827, 3879, 3878, 3930, 3931, 3983, 3982
1901, 3827, 3828, 3880, 3879, 3931, 3932, 3984, 3983
1902, 3881, 3882, 3934, 3933, 3985, 3986, 4038, 4037
1903, 3882, 3883, 3935, 3934, 3986, 3987, 4039, 4038
1904, 3883, 3884, 3936, 3935, 3987, 3988, 4040, 4039
1905, 3884, 3885, 3937, 3936, 3988, 3989, 4041, 4040
1906, 3885, 3886, 3938, 3937, 3989, 3990, 4042, 4041
1907, 3886, 3887, 3939, 3938, 3990, 3991, 4043, 4042
1908, 3887, 3888, 3940, 3939, 3991, 3992, 4044, 4043
1909, 3888, 3889, 3941, 3940, 3992, 3993, 4045, 4044
1910, 3889, 3890, 3942, 3941, 3993, 3994, 4046, 4045
1911, 3890, 3891, 3943, 3942, 3994, 3995, 4047, 4046
1912, 3891, 3892, 3944, 3943, 3995, 3996, 4048, 4047
1913, 3892, 3893, 3945, 3944, 3996, 3997, 4049, 4048
1914, 3893, 3894, 3946, 3945, 3997, 3998, 4050, 4049
1915, 3894, 3895, 3947, 3946, 3998, 3999, 4051, 4050
1916, 3895, 3896, 3948, 3947, 3999, 4000, 4052, 4051
1917, 3896, 3897, 3949, 3948, 4000, 4001, 4053, 4052
1918, 3897, 3898, 3950, 3949, 4001, 4002, 4054, 4053
1919, 3898, 3899, 3951, 3950, 4002, 4003, 4055, 4054
1920, 3899, 3900, 3952, 3951, 4003, 4004, 4056, 4055
1921, 3900, 3901, 3953, 3952, 4004, 4005, 4057, 4056
1922, 3901, 3902, 3954, 3953, 4005, 4006, 4058, 4057
1923, 3902, 3903, 3955, 3954, 4006, 4007, 4059, 4058
1924, 3903, 3904, 3956, 3955, 4007, 4008, 4060, 4059
1925, 3904, 3905, 3957, 3956, 4008, 4009, 4061, 4060
1926, 3905, 3906, 3958, 3957, 4009, 4010, 4062, 4061
1927, 3906, 3907, 3959, 3958, 4010, 4011, 4063, 4062
1928, 3907, 3908, 3960, 3959, 4011, 4012, 4064, 4063
1929, 3908, 3909, 3961, 3960, 4012, 4013, 4065, 4064
1930, 3909, 3910, 3962, 3961, 4013, 4014, 4066, 4065
1931, 3910, 3911, 3963, 3962, 4014, 4015, 4067, 4066
1932, 3911, 3912, 3964, 3963, 4015, 4016, 4068, 4067
1933, 3912, 3913, 3965, 3964, 4016, 4017, 4069, 4068
1934, 3913, 3914, 3966, 3965, 4017, 4018, 4070, 4069
1935, 3914, 3915, 3967, 3966, 4018, 4019, 4071, 4070
1936, 3915, 3916, 3968, 3967, 4019, 4020, 4072, 4071
1937, 3916, 3917, 3969, 3968, 4020, 4021, 4073, 4072
1938, 3917, 3918, 3970, 3969, 4021, 4022, 4074, 4073
1939, 3918, 3919, 3971, 3970, 4022, 4023, 4075, 4074
1940, 3919, 3920, 3972, 3971, 4023, 4024, 4076, 4075
1941, 3920, 3921, 3973, 3972, 4024, 4025, 4077, 4076
1942, 3921, 3922, 3974, 3973, 4025, 4026, 4078, 4077
1943, 3922, 3923, 3975, 3974, 4026, 4027, 4079, 4078
1944, 3923, 3924, 3976, 3975, 4027, 4028, 4080, 4079
1945, 3924, 3925, 3977, 3976, 4028, 4029, 4081, 4080
1946, 3925, 3926, 3978, 3977, 4029, 4030, 4082, 4081
1947, 3926, 3927, 3979, 3978, 4030, 4031, 4083, 4082
1948, 3927, 3928, 3980, 3979, 4031, 4032, 4084, 4083
1949, 3928, 3929, 3981, 3980, 4032, 4033, 4085, 4084
1950, 3929, 3930, 3982, 3981, 4033, 4034, 4086, 4085
1951, 3930, 3931, 3983, 3982, 4034, 4035, 4087, 4086
1952, 3931, 3932, 3984, 3983, 4035, 4036, 4088, 4087
1953, 3985, 3986, 4038, 4037, 4089, 4090, 4142, 4141
1954, 3986, 3987, 4039, 4038, 4090, 4091, 4143, 4142
1955, 3987, 3988, 4040, 4039, 4091, 4092, 4144, 4143
1956, 3988, 3989, 4041, 4040, 4092, 4093, 4145, 4144
1957, 3989, 3990, 4042, 4041, 4093, 4094, 4146, 4145
1958, 3990, 3991, 4043, 4042, 4094, 4095, 4147, 4146
1959, 3991, 3992, 4044, 4043, 4095, 4096, 4148, 4147
1960, 3992, 3993, 4045, 4044, 4096, 4097, 4149, 4148
1961, 3993, 3994, 4046, 4045, 4097, 4098, 4150, 4149
1962, 3994, 3995, 4047, 4046, 4098, 4099, 4151, 4150
1963, 3995, 3996, 4048, 4047, 4099, 4100, 4152, 4151
1964, 3996, 3997, 4049, 4048, 4100, 4101, 4153, 4152
1965, 3997, 3998, 4050, 4049, 4101, 4102, 4154, 4153
1966, 3998, 3999, 4051, 4050, 4102, 4103, 4155, 4154
1967, 3999, 4000, 4052, 4051, 4103, 4104, 4156, 4155
1968, 4000, 4001, 4053, 4052, 4104, 4105, 4157, 4156
1969, 4001, 4002, 4054, 4053, 4105, 4106, 4158, 4157
1970, 4002, 4003, 4055, 4054, 4106, 4107, 4159, 4158
1971, 4003, 4004, 4056, 4055, 4107, 4108, 4160, 4159
1972, 4004, 4005, 4057, 4056, 4108, 4109, 4161, 4160
1973, 4005, 4006, 4058, 4057, 4109, 4110, 4162, 4161
1974, 4006, 4007, 4059, 4058, 4110, 4111, 4163, 4162
1975, 4007, 4008, 4060, 4059, 4111, 4112, 4164, 4163
1976, 4008, 4009, 4061, 4060, 4112, 4113, 4165, 4164
1977, 4009, 4010, 4062, 4061, 4113, 4114, 4166, 4165
1978, 4010, 4011, 4063, 4062, 4114, 4115, 4167, 4166
1979, 4011, 4012, 4064, 4063, 4115, 4116, 4168, 4167
1980, 4012, 4013, 4065, 4064, 4116, 4117, 4169, 4168
1981, 4013, 4014, 4066, 4065, 4117, 4118, 4170, 4169
1982, 4014, 4015, 4067, 4066, 4118, 4119, 4171, 4170
1983, 4015, 4016, 4068, 4067, 4119, 4120, 4172, 4171
1984, 4016, 4017, 4069, 4068, 4120, 4121, 4173, 4172
1985, 4017, 4018, 4070, 4069, 4121, 4122, 4174, 4173
1986, 4018, 4019, 4071, 4070, 4122, 4123, 4175, 4174
1987, 4019, 4020, 4072, 4071, 4123, 4124, 4176, 4175
1988, 4020, 4021, 4073, 4072, 4124, 4125, 4177, 4176
1989, 4021, 4022, 4074, 4073, 4125, 4126, 4178, 4177
1990, 4022, 4023, 4075, 4074, 4126, 4127, 4179, 4178
1991, 4023, 4024, 4076, 4075, 4127, 4128, 4180, 4179
1992, 4024, 4025, 4077, 4076, 4128, 4129, 4181, 4180
1993, 4025, 4026, 4078, 4077, 4129, 4130, 4182, 4181
1994, 4026, 4027, 4079, 4078, 4130, 4131, 4183, 4182
1995, 4027, 4028, 4080, 4079, 4131, 4132, 4184, 4183
1996, 4028, 4029, 4081, 4080, 4132, 4133, 4185, 4184
1997, 4029, 4030, 4082, 4081, 4133, 4134, 4186, 4185
1998, 4030, 4031, 4083, 4082, 4134, 4135, 4187, 4186
1999, 4031, 4032, 4084, 4083, 4135, 4136, 4188, 4187
2000, 4032, 4033, 4085, 4084, 4136, 4137, 4189, 4188
2001, 4033, 4034, 4086, 4085, 4137, 4138, 4190, 4189
2002, 4034, 4035, 4087, 4086, 4138, 4139, 4191, 4190
2003, 4035, 4036, 4088, 4087, 4139, 4140, 4192, 4191
2004, 4089, 4090, 4142, 4141, 4193, 4194, 4246, 4245
2005, 4090, 4091, 4143, 4142, 4194, 4195, 4247, 4246
2006, 4091, 4092, 4144, 4143, 4195, 4196, 4248, 4247
2007, 4092, 4093, 4145, 4144, 4196, 4197, 4249, 4248
2008, 4093, 4094, 4146, 4145, 4197, 4198, 4250, 4249
2009, 4094, 4095, 4147, 4146, 4198, 4199, 4251, 4250
2010, 4095, 4096, 4148, 4147, 4199, 4200, 4252, 4251
2011, 4096, 4097, 4149, 4148, 4200, 4201, 4253, 4252
2012, 4097, 4098, 4150, 4149, 4201, 4202, 4254, 4253
2013, 4098, 4099, 4151, 4150, 4202, 4203, 4255, 4254
2014, 4099, 4100, 4152, 4151, 4203, 4204, 4256, 4255
2015, 4100, 4101, 4153, 4152, 4204, 4205, 4257, 4256
2016, 4101, 4102, 4154, 4153, 4205, 4206, 4258, 4257
2017, 4102, 4103, 4155, 4154, 4206, 4207, 4259, 4258
2018, 4103, 4104, 4156, 4155, 4207, 4208, 4260, 4259
2019, 4104, 4105, 4157, 4156, 4208, 4209, 4261, 4260
2020, 4105, 4106, 4158, 4157, 4209, 4210, 4262, 4261
2021, 4106, 4107, 4159, 4158, 4210, 4211, 4263, 4262
2022, 4107, 4108, 4160, 4159, 4211, 4212, 4264, 4263
2023, 4108, 4109, 4161, 4160, 4212, 4213, 4265, 4264
2024, 4109, 4110, 4162, 4161, 4213, 4214, 4266, 4265
2025, 4110, 4111, 4163, 4162, 4214, 4215, 4267, 4266
2026, 4111, 4112, 4164, 4163, 4215, 4216, 4268, 4267
2027, 4112, 4113, 4165, 4164, 4216, 4217, 4269, 4268
2028, 4113, 4114, 4166, 4165, 4217, 4218, 4270, 4269
2029, 4114, 4115, 4167, 4166, 4218, 4219, 4271, 4270
2030, 4115, 4116, 4168, 4167, 4219, 4220, 4272, 4271
2031, 4116, 4117, 4169, 4168, 4220, 4221, 4273, 4272
2032, 4117, 4118, 4170, 4169, 4221, 4222, 4274, 4273
2033, 4118, 4119, 4171, 4170, 4222, 4223, 4275, 4274
2034, 4119, 4120, 4172, 4171, 4223, 4224, 4276, 4275
2035, 4120, 4121, 4173, 4172, 4224, 4225, 4277, 4276
2036, 4121, 4122, 4174, 4173, 4225, 4226, 4278, 4277
2037, 4122, 4123, 4175, 4174, 4226, 4227, 4279, 4278
2038, 4123, 4124, 4176, 4175, 4227, 4228, 4280, 4279
2039, 4124, 4125, 4177, 4176, 4228, 4229, 4281, 4280
2040, 4125, 4126, 4178, 4177, 4229, 4230, 4282, 4281
2041, 4126, 4127, 4179, 4178, 4230, 4231, 4283, 4282
2042, 4127, 4128, 4180, 4179, 4231, 4232, 4284, 4283
2043, 4128, 4129, 4181, 4180, 4232, 4233, 4285, 4284
2044, 4129, 4130, 4182, 4181, 4233, 4234, 4286, 4285
2045, 4130, 4131, 4183, 4182, 4234, 4235, 4287, 4286
2046, 4131, 4132, 4184, 4183, 4235, 4236, 4288, 4287
2047, 4132, 4133, 4185, 4184, 4236, 4237, 4289, 4288
2048, 4133, 4134, 4186, 4185, 4237, 4238, 4290, 4289
2049, 4134, 4135, 4187, 4186, 4238, 4239, 4291, 4290
2050, 4135, 4136, 4188, 4187, 4239, 4240, 4292, 4291
2051, 4136, 4137, 4189, 4188, 4240, 4241, 4293, 4292
2052, 4137, 4138, 4190, 4189, 4241, 4242, 4294, 4293
2053, 4138, 4139, 4191, 4190, 4242, 4243, 4295, 4294
2054, 4139, 4140, 4192, 4191, 4243, 4244, 4296, 4295
2055, 4193, 4194, 4246, 4245, 4297, 4298, 4350, 4349
2056, 4194, 4195, 4247, 4246, 4298, 4299, 4351, 4350
2057, 4195, 4196, 4248, 4247, 4299, 4300, 4352, 4351
2058, 4196, 4197, 4249, 4248, 4300, 4301, 4353, 4352
2059, 4197, 4198, 4250, 4249, 4301, 4302, 4354, 4353
2060, 4198, 4199, 4251, 4250, 4302, 4303, 4355, 4354
2061, 4199, 4200, 4252, 4251, 4303, 4304, 4356, 4355
2062, 4200, 4201, 4253, 4252, 4304, 4305, 4357, 4356
2063, 4201, 4202, 4254, 4253, 4305, 4306, 4358, 4357
2064, 4202, 4203, 4255, 4254, 4306, 4307, 4359, 4358
2065, 4203, 4204, 4256, 4255, 4307, 4308, 4360, 4359
2066, 4204, 4205, 4257, 4256, 4308, 4309, 4361, 4360
2067, 4205, 4206, 4258, 4257, 4309, 4310, 4362, 4361
2068, 4206, 4207, 4259, 4258, 4310, 4311, 4363, 4362
2069, 4207, 4208, 4260, 4259, 4311, 4312, 4364, 4363
2070, 4208, 4209, 4261, 4260, 4312, 4313, 4365, 4364
2071, 4209, 4210, 4262, 4261, 4313, 4314, 4366, 4365
2072, 4210, 4211, 4263, 4262, 4314, 4315, 4367, 4366
2073, 4211, 4212, 4264, 4263, 4315, 4316, 4368, 4367
2074, 4212, 4213, 4265, 4264, 4316, 4317, 4369, 4368
2075, 4213, 4214, 4266, 4265, 4317, 4318, 4370, 4369
2076, 4214, 4215, 4267, 4266, 4318, 4319, 4371, 4370
2077, 4215, 4216, 4268, 4267, 4319, 4320, 4372, 4371
2078, 4216, 4217, 4269, 4268, 4320, 4321, 4373, 4372
2079, 4217, 4218, 4270, 4269, 4321, 4322, 4374, 4373
2080, 4218, 4219, 4271, 4270, 4322, 4323, 4375, 4374
2081, 4219, 4220, 4272, 4271, 4323, 4324, 4376, 4375
2082, 4220, 4221, 4273, 4272, 4324, 4325, 4377, 4376
2083, 4221, 4222, 4274, 4273, 4325, 4326, 4378, 4377
2084, 4222, 4223, 4275, 4274, 4326, 4327, 4379, 4378
2085, 4223, 4224, 4276, 4275, 4327, 4328, 4380, 4379
2086, 4224, 4225, 4277, 4276, 4328, 4329, 4381, 4380
2087, 4225, 4226, 4278, 4277, 4329, 4330, 4382, 4381
2088, 4226, 4227, 4279, 4278, 4330, 4331, 4383, 4382
2089, 4227, 4228, 4280, 4279, 4331, 4332, 4384, 4383
2090, 4228, 4229, 4281, 4280, 4332, 4333, 4385, 4384
2091, 4229, 4230, 4282, 4281, 4333, 4334, 4386, 4385
2092, 4230, 4231, 4283, 4282, 4334, 4335, 4387, 4386
2093, 4231, 4232, 4284, 4283, 4335, 4336, 4388, 4387
2094, 4232, 4233, 4285, 4284, 4336, 4337, 4389, 4388
2095, 4233, 4234, 4286, 4285, 4337, 4338, 4390, 4389
2096, 4234, 4235, 4287, 4286, 4338, 4339, 4391, 4390
2097, 4235, 4236, 4288, 4287, 4339, 4340, 4392, 4391
2098, 4236, 4237, 4289, 4288, 4340, 4341, 4393, 4392
2099, 4237, 4238, 4290, 4289, 4341, 4342, 4394, 4393
2100, 4238, 4239, 4291, 4290, 4342, 4343, 4395, 4394
2101, 4239, 4240, 4292, 4291, 4343, 4344, 4396, 4395
2102, 4240, 4241, 4293, 4292, 4344, 4345, 4397, 4396
2103, 4241, 4242, 4294, 4293, 4345, 4346, 4398, 4397
2104, 4242, 4243, 4295, 4294, 4346, 4347, 4399, 4398
2105, 4243, 4244, 4296, 4295, 4347, 4348, 4400, 4399
2106, 4297, 4298, 4350, 4349, 4401, 4402, 4454, 4453
2107, 4298, 4299, 4351, 4350, 4402, 4403, 4455, 4454
2108, 4299, 4300, 4352, 4351, 4403, 4404, 4456, 4455
2109, 4300, 4301, 4353, 4352, 4404, 4405, 4457, 4456
2110, 4301, 4302, 4354, 4353, 4405, 4406, 4458, 4457
2111, 4302, 4303, 4355, 4354, 4406, 4407, 4459, 4458
2112, 4303, 4304, 4356, 4355, 4407, 4408, 4460, 4459
2113, 4304, 4305, 4357, 4356, 4408, 4409, 4461, 4460
2114, 4305, 4306, 4358, 4357, 4409, 4410, 4462, 4461
2115, 4306, 4307, 4359, 4358, 4410, 4411, 4463, 4462
2116, 4307, 4308, 4360, 4359, 4411, 4412, 4464, 4463
2117, 4308, 4309, 4361, 4360, 4412, 4413, 4465, 4464
2118, 4309, 4310, 4362, 4361, 4413, 4414, 4466, 4465
2119, 4310, 4311, 4363, 4362, 4414, 4415, 4467, 4466
2120, 4311, 4312, 4364, 4363, 4415, 4416, 4468, 4467
2121, 4312, 4313, 4365, 4364, 4416, 4417, 4469, 4468
2122, 4313, 4314, 4366, 4365, 4417, 4418, 4470, 4469
2123, 4314, 4315, 4367, 4366, 4418, 4419, 4471, 4470
2124, 4315, 4316, 4368, 4367, 4419, 4420, 4472, 4471
2125, 4316, 4317, 4369, 4368, 4420, 4421, 4473, 4472
2126, 4317, 4318, 4370, 4369, 4421, 4422, 4474, 4473
2127, 4318, 4319, 4371, 4370, 4422, 4423, 4475, 4474
2128, 4319, 4320, 4372, 4371, 4423, 4424, 4476, 4475
2129, 4320, 4321, 4373, 4372, 4424, 4425, 4477, 4476
2130, 4321, 4322, 4374, 4373, 4425, 4426, 4478, 4477
2131, 4322, 4323, 4375, 4374, 4426, 4427, 4479, 4478
2132, 4323, 4324, 4376, 4375, 4427, 4428, 4480, 4479
2133, 4324, 4325, 4377, 4376, 4428, 4429, 4481, 4480
2134, 4325, 4326, 4378, 4377, 4429, 4430, 4482, 4481
2135, 4326, 4327, 4379, 4378, 4430, 4431, 4483, 4482
2136, 4327, 4328, 4380, 4379, 4431, 4432, 4484, 4483
2137, 4328, 4329, 4381, 4380, 4432, 4433, 4485, 4484
2138, 4329, 4330, 4382, 4381, 4433, 4434, 4486, 4485
2139, 4330, 4331, 4383, 4382, 4434, 4435, 4487, 4486
2140, 4331, 4332, 4384, 4383, 4435, 4436, 4488, 4487
2141, 4332, 4333, 4385, 4384, 4436, 4437, 4489, 4488
2142, 4333, 4334, 4386, 4385, 4437, 4438, 4490, 4489
2143, 4334, 4335, 4387, 4386, 4438, 4439, 4491, 4490
2144, 4335, 4336, 4388, 4387, 4439, 4440, 4492, 4491
2145, 4336, 4337, 4389, 4388, 4440, 4441, 4493, 4492
2146, 4337, 4338, 4390, 4389, 4441, 4442, 4494, 4493
2147, 4338, 4339, 4391, 4390, 4442, 4443, 4495, 4494
2148, 4339, 4340, 4392, 4391, 4443, 4444, 4496, 4495
2149, 4340, 4341, 4393, 4392, 4444, 4445, 4497, 4496
2150, 4341, 4342, 4394, 4393, 4445, 4446, 4498, 4497
2151, 4342, 4343, 4395, 4394, 4446, 4447, 4499, 4498
2152, 4343, 4344, 4396, 4395, 4447, 4448, 4500, 4499
2153, 4344, 4345, 4397, 4396, 4448, 4449, 4501, 4500
2154, 4345, 4346, 4398, 4397, 4449, 4450, 4502, 4501
2155, 4346, 4347, 4399, 4398, 4450, 4451, 4503, 4502
2156, 4347, 4348, 4400, 4399, 4451, 4452, 4504, 4503
*UEL PROPERTY, ELSET=EOX
0, 0., 2.000000e+02
*UEL PROPERTY, ELSET=ENP
1, 1.000000e+09, 2.000000e+02
*UEL PROPERTY, ELSET=EPSUB
1, -1.000000e+07, 2.000000e+02
*NSET, NSET=SRC
241, 242, 243, 244, 245, 246, 247, 293, 294, 295, 296, 297
298, 299
*NSET, NSET=DRN
286, 287, 288, 289, 290, 291, 292, 338, 339, 340, 341, 342
343, 344
*NSET, NSET=BLK
4401, 4402, 4403, 4404, 4405, 4406, 4407, 4408, 4409, 4410, 4411, 4412
4413, 4414, 4415, 4416, 4417, 4418, 4419, 4420, 4421, 4422, 4423, 4424
4425, 4426, 4427, 4428, 4429, 4430, 4431, 4432, 4433, 4434, 4435, 4436
4437, 4438, 4439, 4440, 4441, 4442, 4443, 4444, 4445, 4446, 4447, 4448
4449, 4450, 4451, 4452, 4453, 4454, 4455, 4456, 4457, 4458, 4459, 4460
4461, 4462, 4463, 4464, 4465, 4466, 4467, 4468, 4469, 4470, 4471, 4472
4473, 4474, 4475, 4476, 4477, 4478, 4479, 4480, 4481, 4482, 4483, 4484
4485, 4486, 4487, 4488, 4489, 4490, 4491, 4492, 4493, 4494, 4495, 4496
4497, 4498, 4499, 4500, 4501, 4502, 4503, 4504
*NSET, NSET=GATE
1, 2, 3, 4, 5, 6, 7, 8, 9, 10, 11, 12
13, 14, 15, 16, 17, 18, 19, 20, 21, 22, 23, 24
25, 26, 27, 28, 29, 30, 31, 32, 33, 34, 35, 36
37, 38, 39, 40, 41, 42, 43, 44, 45, 46, 47, 48
49, 50, 51, 52, 53, 54, 55, 56, 57, 58, 59, 60
*NSET, NSET=OXI
1, 2, 3, 4, 5, 6, 7, 8, 9, 10, 11, 12
13, 14, 15, 16, 17, 18, 19, 20, 21, 22, 23, 24
25, 26, 27, 28, 29, 30, 31, 32, 33, 34, 35, 36
37, 38, 39, 40, 41, 42, 43, 44, 45, 46, 47, 48
49, 50, 51, 52, 53, 54, 55, 56, 57, 58, 59, 60
61, 62, 63, 64, 65, 66, 67, 68, 69, 70, 71, 72
73, 74, 75, 76, 77, 78, 79, 80, 81, 82, 83, 84
85, 86, 87, 88, 89, 90, 91, 92, 93, 94, 95, 96
97, 98, 99, 100, 101, 102, 103, 104, 105, 106, 107, 108
109, 110, 111, 112, 113, 114, 115, 116, 117, 118, 119, 120
121, 122, 123, 124, 125, 126, 127, 128, 129, 130, 131, 132
133, 134, 135, 136, 137, 138, 139, 140, 141, 142, 143, 144
145, 146, 147, 148, 149, 150, 151, 152, 153, 154, 155, 156
157, 158, 159, 160, 161, 162, 163, 164, 165, 166, 167, 168
169, 170, 171, 172, 173, 174, 175, 176, 177, 178, 179, 180
181, 182, 183, 184, 185, 186, 187, 188, 189, 190, 191, 192
193, 194, 195, 196, 197, 198, 199, 200, 201, 202, 203, 204
205, 206, 207, 208, 209, 210, 211, 212, 213, 214, 215, 216
217, 218, 219, 220, 221, 222, 223, 224, 225, 226, 227, 228
229, 230, 231, 232, 233, 234, 235, 236, 237, 238, 239, 240
*NSET, NSET=NALL, GENERATE
1, 4504, 1
*STEP, INC=400, UNSYMM=YES
*STATIC
0.05, 1.0, 1e-9, 0.05
*CONTROLS, PARAMETERS=FIELD
1e-6,,,,,,,
*BOUNDARY
GATE, 1, 1, -1.61180957e+01
GATE, 2, 3, 0.
OXI, 2, 3, 0.
SRC, 1, 1, 2.07232658e+01
SRC, 2, 3, 0.
DRN, 1, 1, 2.07232658e+01
DRN, 2, 2, 0.00000000e+00
DRN, 3, 3, 0.00000000e+00
BLK, 1, 1, -1.61180957e+01
BLK, 2, 3, 0.
BLK, 4, 4, 0.
*NODE PRINT, NSET=NALL, FREQUENCY=999
U
*NODE PRINT, NSET=DRN, FREQUENCY=999, TOTALS=YES
RF
*NODE PRINT, NSET=BLK, FREQUENCY=999, TOTALS=YES
RF
*END STEP
*STEP, INC=400, UNSYMM=YES
*STATIC
0.1, 1.0, 1e-9, 0.1
*CONTROLS, PARAMETERS=FIELD
1e-6,,,,,,,
*BOUNDARY
GATE, 1, 1, 9.99360630e+01
GATE, 2, 3, 0.
OXI, 2, 3, 0.
SRC, 1, 1, 2.07232658e+01
SRC, 2, 3, 0.
DRN, 1, 1, 2.07232658e+01
DRN, 2, 2, 0.00000000e+00
DRN, 3, 3, 0.00000000e+00
BLK, 1, 1, -1.61180957e+01
BLK, 2, 3, 0.
BLK, 4, 4, 0.
*END STEP
*STEP, INC=400, UNSYMM=YES
*STATIC
0.125, 1.0, 1e-9, 0.125
*CONTROLS, PARAMETERS=FIELD
1e-6,,,,,,,
*BOUNDARY
GATE, 1, 1, 9.99360630e+01
GATE, 2, 3, 0.
OXI, 2, 3, 0.
SRC, 1, 1, 2.07232658e+01
SRC, 2, 3, 0.
DRN, 1, 1, 4.00656256e+01
DRN, 2, 2, 1.93423598e+01
DRN, 3, 3, 1.93423598e+01
BLK, 1, 1, -1.61180957e+01
BLK, 2, 3, 0.
BLK, 4, 4, 0.
*END STEP
*STEP, INC=400, UNSYMM=YES
*STATIC
0.125, 1.0, 1e-9, 0.125
*CONTROLS, PARAMETERS=FIELD
1e-6,,,,,,,
*BOUNDARY
GATE, 1, 1, 9.99360630e+01
GATE, 2, 3, 0.
OXI, 2, 3, 0.
SRC, 1, 1, 2.07232658e+01
SRC, 2, 3, 0.
DRN, 1, 1, 5.94079854e+01
DRN, 2, 2, 3.86847195e+01
DRN, 3, 3, 3.86847195e+01
BLK, 1, 1, -1.61180957e+01
BLK, 2, 3, 0.
BLK, 4, 4, 0.
*END STEP
*STEP, INC=400, UNSYMM=YES
*STATIC
0.125, 1.0, 1e-9, 0.125
*CONTROLS, PARAMETERS=FIELD
1e-6,,,,,,,
*BOUNDARY
GATE, 1, 1, 9.99360630e+01
GATE, 2, 3, 0.
OXI, 2, 3, 0.
SRC, 1, 1, 2.07232658e+01
SRC, 2, 3, 0.
DRN, 1, 1, 7.87503451e+01
DRN, 2, 2, 5.80270793e+01
DRN, 3, 3, 5.80270793e+01
BLK, 1, 1, -1.61180957e+01
BLK, 2, 3, 0.
BLK, 4, 4, 0.
*END STEP
*STEP, INC=400, UNSYMM=YES
*STATIC
0.125, 1.0, 1e-9, 0.125
*CONTROLS, PARAMETERS=FIELD
1e-6,,,,,,,
*BOUNDARY
GATE, 1, 1, 9.99360630e+01
GATE, 2, 3, 0.
OXI, 2, 3, 0.
SRC, 1, 1, 2.07232658e+01
SRC, 2, 3, 0.
DRN, 1, 1, 9.80927049e+01
DRN, 2, 2, 7.73694391e+01
DRN, 3, 3, 7.73694391e+01
BLK, 1, 1, -1.61180957e+01
BLK, 2, 3, 0.
BLK, 4, 4, 0.
*END STEP
*STEP, INC=400, UNSYMM=YES
*STATIC
0.125, 1.0, 1e-9, 0.125
*CONTROLS, PARAMETERS=FIELD
1e-6,,,,,,,
*BOUNDARY
GATE, 1, 1, 9.99360630e+01
GATE, 2, 3, 0.
OXI, 2, 3, 0.
SRC, 1, 1, 2.07232658e+01
SRC, 2, 3, 0.
DRN, 1, 1, 1.17435065e+02
DRN, 2, 2, 9.67117988e+01
DRN, 3, 3, 9.67117988e+01
BLK, 1, 1, -1.61180957e+01
BLK, 2, 3, 0.
BLK, 4, 4, 0.
*END STEP
*STEP, INC=400, UNSYMM=YES
*STATIC
0.125, 1.0, 1e-9, 0.125
*CONTROLS, PARAMETERS=FIELD
1e-6,,,,,,,
*BOUNDARY
GATE, 1, 1, 9.99360630e+01
GATE, 2, 3, 0.
OXI, 2, 3, 0.
SRC, 1, 1, 2.07232658e+01
SRC, 2, 3, 0.
DRN, 1, 1, 1.36777424e+02
DRN, 2, 2, 1.16054159e+02
DRN, 3, 3, 1.16054159e+02
BLK, 1, 1, -1.61180957e+01
BLK, 2, 3, 0.
BLK, 4, 4, 0.
*END STEP
