*HEADING
ex24 DG quantum slab (gamma=0.36)
*USER ELEMENT, NODES=8, TYPE=U1, PROPERTIES=3, COORDINATES=3, VARIABLES=1, UNSYMM
1,2,3,4
*NODE
1, 0.00000000e+00, 0.00000000e+00, 0.00000000e+00
2, 5.00000000e-07, 0.00000000e+00, 0.00000000e+00
3, 1.00000000e-06, 0.00000000e+00, 0.00000000e+00
4, 1.50000000e-06, 0.00000000e+00, 0.00000000e+00
5, 2.00000000e-06, 0.00000000e+00, 0.00000000e+00
6, 2.50000000e-06, 0.00000000e+00, 0.00000000e+00
7, 3.00000000e-06, 0.00000000e+00, 0.00000000e+00
8, 0.00000000e+00, 5.00000000e-09, 0.00000000e+00
9, 5.00000000e-07, 5.00000000e-09, 0.00000000e+00
10, 1.00000000e-06, 5.00000000e-09, 0.00000000e+00
11, 1.50000000e-06, 5.00000000e-09, 0.00000000e+00
12, 2.00000000e-06, 5.00000000e-09, 0.00000000e+00
13, 2.50000000e-06, 5.00000000e-09, 0.00000000e+00
14, 3.00000000e-06, 5.00000000e-09, 0.00000000e+00
15, 0.00000000e+00, 1.00000000e-08, 0.00000000e+00
16, 5.00000000e-07, 1.00000000e-08, 0.00000000e+00
17, 1.00000000e-06, 1.00000000e-08, 0.00000000e+00
18, 1.50000000e-06, 1.00000000e-08, 0.00000000e+00
19, 2.00000000e-06, 1.00000000e-08, 0.00000000e+00
20, 2.50000000e-06, 1.00000000e-08, 0.00000000e+00
21, 3.00000000e-06, 1.00000000e-08, 0.00000000e+00
22, 0.00000000e+00, 1.50000000e-08, 0.00000000e+00
23, 5.00000000e-07, 1.50000000e-08, 0.00000000e+00
24, 1.00000000e-06, 1.50000000e-08, 0.00000000e+00
25, 1.50000000e-06, 1.50000000e-08, 0.00000000e+00
26, 2.00000000e-06, 1.50000000e-08, 0.00000000e+00
27, 2.50000000e-06, 1.50000000e-08, 0.00000000e+00
28, 3.00000000e-06, 1.50000000e-08, 0.00000000e+00
29, 0.00000000e+00, 2.00000000e-08, 0.00000000e+00
30, 5.00000000e-07, 2.00000000e-08, 0.00000000e+00
31, 1.00000000e-06, 2.00000000e-08, 0.00000000e+00
32, 1.50000000e-06, 2.00000000e-08, 0.00000000e+00
33, 2.00000000e-06, 2.00000000e-08, 0.00000000e+00
34, 2.50000000e-06, 2.00000000e-08, 0.00000000e+00
35, 3.00000000e-06, 2.00000000e-08, 0.00000000e+00
36, 0.00000000e+00, 2.50000000e-08, 0.00000000e+00
37, 5.00000000e-07, 2.50000000e-08, 0.00000000e+00
38, 1.00000000e-06, 2.50000000e-08, 0.00000000e+00
39, 1.50000000e-06, 2.50000000e-08, 0.00000000e+00
40, 2.00000000e-06, 2.50000000e-08, 0.00000000e+00
41, 2.50000000e-06, 2.50000000e-08, 0.00000000e+00
42, 3.00000000e-06, 2.50000000e-08, 0.00000000e+00
43, 0.00000000e+00, 3.00000000e-08, 0.00000000e+00
44, 5.00000000e-07, 3.00000000e-08, 0.00000000e+00
45, 1.00000000e-06, 3.00000000e-08, 0.00000000e+00
46, 1.50000000e-06, 3.00000000e-08, 0.00000000e+00
47, 2.00000000e-06, 3.00000000e-08, 0.00000000e+00
48, 2.50000000e-06, 3.00000000e-08, 0.00000000e+00
49, 3.00000000e-06, 3.00000000e-08, 0.00000000e+00
50, 0.00000000e+00, 3.50000000e-08, 0.00000000e+00
51, 5.00000000e-07, 3.50000000e-08, 0.00000000e+00
52, 1.00000000e-06, 3.50000000e-08, 0.00000000e+00
53, 1.50000000e-06, 3.50000000e-08, 0.00000000e+00
54, 2.00000000e-06, 3.50000000e-08, 0.00000000e+00
55, 2.50000000e-06, 3.50000000e-08, 0.00000000e+00
56, 3.00000000e-06, 3.50000000e-08, 0.00000000e+00
57, 0.00000000e+00, 4.00000000e-08, 0.00000000e+00
58, 5.00000000e-07, 4.00000000e-08, 0.00000000e+00
59, 1.00000000e-06, 4.00000000e-08, 0.00000000e+00
60, 1.50000000e-06, 4.00000000e-08, 0.00000000e+00
61, 2.00000000e-06, 4.00000000e-08, 0.00000000e+00
62, 2.50000000e-06, 4.00000000e-08, 0.00000000e+00
63, 3.00000000e-06, 4.00000000e-08, 0.00000000e+00
64, 0.00000000e+00, 4.50000000e-08, 0.00000000e+00
65, 5.00000000e-07, 4.50000000e-08, 0.00000000e+00
66, 1.00000000e-06, 4.50000000e-08, 0.00000000e+00
67, 1.50000000e-06, 4.50000000e-08, 0.00000000e+00
68, 2.00000000e-06, 4.50000000e-08, 0.00000000e+00
69, 2.50000000e-06, 4.50000000e-08, 0.00000000e+00
70, 3.00000000e-06, 4.50000000e-08, 0.00000000e+00
71, 0.00000000e+00, 5.00000000e-08, 0.00000000e+00
72, 5.00000000e-07, 5.00000000e-08, 0.00000000e+00
73, 1.00000000e-06, 5.00000000e-08, 0.00000000e+00
74, 1.50000000e-06, 5.00000000e-08, 0.00000000e+00
75, 2.00000000e-06, 5.00000000e-08, 0.00000000e+00
76, 2.50000000e-06, 5.00000000e-08, 0.00000000e+00
77, 3.00000000e-06, 5.00000000e-08, 0.00000000e+00
78, 0.00000000e+00, 5.50000000e-08, 0.00000000e+00
79, 5.00000000e-07, 5.50000000e-08, 0.00000000e+00
80, 1.00000000e-06, 5.50000000e-08, 0.00000000e+00
81, 1.50000000e-06, 5.50000000e-08, 0.00000000e+00
82, 2.00000000e-06, 5.50000000e-08, 0.00000000e+00
83, 2.50000000e-06, 5.50000000e-08, 0.00000000e+00
84, 3.00000000e-06, 5.50000000e-08, 0.00000000e+00
85, 0.00000000e+00, 6.00000000e-08, 0.00000000e+00
86, 5.00000000e-07, 6.00000000e-08, 0.00000000e+00
87, 1.00000000e-06, 6.00000000e-08, 0.00000000e+00
88, 1.50000000e-06, 6.00000000e-08, 0.00000000e+00
89, 2.00000000e-06, 6.00000000e-08, 0.00000000e+00
90, 2.50000000e-06, 6.00000000e-08, 0.00000000e+00
91, 3.00000000e-06, 6.00000000e-08, 0.00000000e+00
92, 0.00000000e+00, 6.50000000e-08, 0.00000000e+00
93, 5.00000000e-07, 6.50000000e-08, 0.00000000e+00
94, 1.00000000e-06, 6.50000000e-08, 0.00000000e+00
95, 1.50000000e-06, 6.50000000e-08, 0.00000000e+00
96, 2.00000000e-06, 6.50000000e-08, 0.00000000e+00
97, 2.50000000e-06, 6.50000000e-08, 0.00000000e+00
98, 3.00000000e-06, 6.50000000e-08, 0.00000000e+00
99, 0.00000000e+00, 7.00000000e-08, 0.00000000e+00
100, 5.00000000e-07, 7.00000000e-08, 0.00000000e+00
101, 1.00000000e-06, 7.00000000e-08, 0.00000000e+00
102, 1.50000000e-06, 7.00000000e-08, 0.00000000e+00
103, 2.00000000e-06, 7.00000000e-08, 0.00000000e+00
104, 2.50000000e-06, 7.00000000e-08, 0.00000000e+00
105, 3.00000000e-06, 7.00000000e-08, 0.00000000e+00
106, 0.00000000e+00, 7.50000000e-08, 0.00000000e+00
107, 5.00000000e-07, 7.50000000e-08, 0.00000000e+00
108, 1.00000000e-06, 7.50000000e-08, 0.00000000e+00
109, 1.50000000e-06, 7.50000000e-08, 0.00000000e+00
110, 2.00000000e-06, 7.50000000e-08, 0.00000000e+00
111, 2.50000000e-06, 7.50000000e-08, 0.00000000e+00
112, 3.00000000e-06, 7.50000000e-08, 0.00000000e+00
113, 0.00000000e+00, 8.00000000e-08, 0.00000000e+00
114, 5.00000000e-07, 8.00000000e-08, 0.00000000e+00
115, 1.00000000e-06, 8.00000000e-08, 0.00000000e+00
116, 1.50000000e-06, 8.00000000e-08, 0.00000000e+00
117, 2.00000000e-06, 8.00000000e-08, 0.00000000e+00
118, 2.50000000e-06, 8.00000000e-08, 0.00000000e+00
119, 3.00000000e-06, 8.00000000e-08, 0.00000000e+00
120, 0.00000000e+00, 8.50000000e-08, 0.00000000e+00
121, 5.00000000e-07, 8.50000000e-08, 0.00000000e+00
122, 1.00000000e-06, 8.50000000e-08, 0.00000000e+00
123, 1.50000000e-06, 8.50000000e-08, 0.00000000e+00
124, 2.00000000e-06, 8.50000000e-08, 0.00000000e+00
125, 2.50000000e-06, 8.50000000e-08, 0.00000000e+00
126, 3.00000000e-06, 8.50000000e-08, 0.00000000e+00
127, 0.00000000e+00, 9.00000000e-08, 0.00000000e+00
128, 5.00000000e-07, 9.00000000e-08, 0.00000000e+00
129, 1.00000000e-06, 9.00000000e-08, 0.00000000e+00
130, 1.50000000e-06, 9.00000000e-08, 0.00000000e+00
131, 2.00000000e-06, 9.00000000e-08, 0.00000000e+00
132, 2.50000000e-06, 9.00000000e-08, 0.00000000e+00
133, 3.00000000e-06, 9.00000000e-08, 0.00000000e+00
134, 0.00000000e+00, 9.50000000e-08, 0.00000000e+00
135, 5.00000000e-07, 9.50000000e-08, 0.00000000e+00
136, 1.00000000e-06, 9.50000000e-08, 0.00000000e+00
137, 1.50000000e-06, 9.50000000e-08, 0.00000000e+00
138, 2.00000000e-06, 9.50000000e-08, 0.00000000e+00
139, 2.50000000e-06, 9.50000000e-08, 0.00000000e+00
140, 3.00000000e-06, 9.50000000e-08, 0.00000000e+00
141, 0.00000000e+00, 1.00000000e-07, 0.00000000e+00
142, 5.00000000e-07, 1.00000000e-07, 0.00000000e+00
143, 1.00000000e-06, 1.00000000e-07, 0.00000000e+00
144, 1.50000000e-06, 1.00000000e-07, 0.00000000e+00
145, 2.00000000e-06, 1.00000000e-07, 0.00000000e+00
146, 2.50000000e-06, 1.00000000e-07, 0.00000000e+00
147, 3.00000000e-06, 1.00000000e-07, 0.00000000e+00
148, 0.00000000e+00, 1.05000000e-07, 0.00000000e+00
149, 5.00000000e-07, 1.05000000e-07, 0.00000000e+00
150, 1.00000000e-06, 1.05000000e-07, 0.00000000e+00
151, 1.50000000e-06, 1.05000000e-07, 0.00000000e+00
152, 2.00000000e-06, 1.05000000e-07, 0.00000000e+00
153, 2.50000000e-06, 1.05000000e-07, 0.00000000e+00
154, 3.00000000e-06, 1.05000000e-07, 0.00000000e+00
155, 0.00000000e+00, 1.10000000e-07, 0.00000000e+00
156, 5.00000000e-07, 1.10000000e-07, 0.00000000e+00
157, 1.00000000e-06, 1.10000000e-07, 0.00000000e+00
158, 1.50000000e-06, 1.10000000e-07, 0.00000000e+00
159, 2.00000000e-06, 1.10000000e-07, 0.00000000e+00
160, 2.50000000e-06, 1.10000000e-07, 0.00000000e+00
161, 3.00000000e-06, 1.10000000e-07, 0.00000000e+00
162, 0.00000000e+00, 1.15000000e-07, 0.00000000e+00
163, 5.00000000e-07, 1.15000000e-07, 0.00000000e+00
164, 1.00000000e-06, 1.15000000e-07, 0.00000000e+00
165, 1.50000000e-06, 1.15000000e-07, 0.00000000e+00
166, 2.00000000e-06, 1.15000000e-07, 0.00000000e+00
167, 2.50000000e-06, 1.15000000e-07, 0.00000000e+00
168, 3.00000000e-06, 1.15000000e-07, 0.00000000e+00
169, 0.00000000e+00, 1.20000000e-07, 0.00000000e+00
170, 5.00000000e-07, 1.20000000e-07, 0.00000000e+00
171, 1.00000000e-06, 1.20000000e-07, 0.00000000e+00
172, 1.50000000e-06, 1.20000000e-07, 0.00000000e+00
173, 2.00000000e-06, 1.20000000e-07, 0.00000000e+00
174, 2.50000000e-06, 1.20000000e-07, 0.00000000e+00
175, 3.00000000e-06, 1.20000000e-07, 0.00000000e+00
176, 0.00000000e+00, 1.25000000e-07, 0.00000000e+00
177, 5.00000000e-07, 1.25000000e-07, 0.00000000e+00
178, 1.00000000e-06, 1.25000000e-07, 0.00000000e+00
179, 1.50000000e-06, 1.25000000e-07, 0.00000000e+00
180, 2.00000000e-06, 1.25000000e-07, 0.00000000e+00
181, 2.50000000e-06, 1.25000000e-07, 0.00000000e+00
182, 3.00000000e-06, 1.25000000e-07, 0.00000000e+00
183, 0.00000000e+00, 1.30000000e-07, 0.00000000e+00
184, 5.00000000e-07, 1.30000000e-07, 0.00000000e+00
185, 1.00000000e-06, 1.30000000e-07, 0.00000000e+00
186, 1.50000000e-06, 1.30000000e-07, 0.00000000e+00
187, 2.00000000e-06, 1.30000000e-07, 0.00000000e+00
188, 2.50000000e-06, 1.30000000e-07, 0.00000000e+00
189, 3.00000000e-06, 1.30000000e-07, 0.00000000e+00
190, 0.00000000e+00, 1.35000000e-07, 0.00000000e+00
191, 5.00000000e-07, 1.35000000e-07, 0.00000000e+00
192, 1.00000000e-06, 1.35000000e-07, 0.00000000e+00
193, 1.50000000e-06, 1.35000000e-07, 0.00000000e+00
194, 2.00000000e-06, 1.35000000e-07, 0.00000000e+00
195, 2.50000000e-06, 1.35000000e-07, 0.00000000e+00
196, 3.00000000e-06, 1.35000000e-07, 0.00000000e+00
197, 0.00000000e+00, 1.40000000e-07, 0.00000000e+00
198, 5.00000000e-07, 1.40000000e-07, 0.00000000e+00
199, 1.00000000e-06, 1.40000000e-07, 0.00000000e+00
200, 1.50000000e-06, 1.40000000e-07, 0.00000000e+00
201, 2.00000000e-06, 1.40000000e-07, 0.00000000e+00
202, 2.50000000e-06, 1.40000000e-07, 0.00000000e+00
203, 3.00000000e-06, 1.40000000e-07, 0.00000000e+00
204, 0.00000000e+00, 1.45000000e-07, 0.00000000e+00
205, 5.00000000e-07, 1.45000000e-07, 0.00000000e+00
206, 1.00000000e-06, 1.45000000e-07, 0.00000000e+00
207, 1.50000000e-06, 1.45000000e-07, 0.00000000e+00
208, 2.00000000e-06, 1.45000000e-07, 0.00000000e+00
209, 2.50000000e-06, 1.45000000e-07, 0.00000000e+00
210, 3.00000000e-06, 1.45000000e-07, 0.00000000e+00
211, 0.00000000e+00, 1.50000000e-07, 0.00000000e+00
212, 5.00000000e-07, 1.50000000e-07, 0.00000000e+00
213, 1.00000000e-06, 1.50000000e-07, 0.00000000e+00
214, 1.50000000e-06, 1.50000000e-07, 0.00000000e+00
215, 2.00000000e-06, 1.50000000e-07, 0.00000000e+00
216, 2.50000000e-06, 1.50000000e-07, 0.00000000e+00
217, 3.00000000e-06, 1.50000000e-07, 0.00000000e+00
218, 0.00000000e+00, 1.55000000e-07, 0.00000000e+00
219, 5.00000000e-07, 1.55000000e-07, 0.00000000e+00
220, 1.00000000e-06, 1.55000000e-07, 0.00000000e+00
221, 1.50000000e-06, 1.55000000e-07, 0.00000000e+00
222, 2.00000000e-06, 1.55000000e-07, 0.00000000e+00
223, 2.50000000e-06, 1.55000000e-07, 0.00000000e+00
224, 3.00000000e-06, 1.55000000e-07, 0.00000000e+00
225, 0.00000000e+00, 1.60000000e-07, 0.00000000e+00
226, 5.00000000e-07, 1.60000000e-07, 0.00000000e+00
227, 1.00000000e-06, 1.60000000e-07, 0.00000000e+00
228, 1.50000000e-06, 1.60000000e-07, 0.00000000e+00
229, 2.00000000e-06, 1.60000000e-07, 0.00000000e+00
230, 2.50000000e-06, 1.60000000e-07, 0.00000000e+00
231, 3.00000000e-06, 1.60000000e-07, 0.00000000e+00
232, 0.00000000e+00, 1.65000000e-07, 0.00000000e+00
233, 5.00000000e-07, 1.65000000e-07, 0.00000000e+00
234, 1.00000000e-06, 1.65000000e-07, 0.00000000e+00
235, 1.50000000e-06, 1.65000000e-07, 0.00000000e+00
236, 2.00000000e-06, 1.65000000e-07, 0.00000000e+00
237, 2.50000000e-06, 1.65000000e-07, 0.00000000e+00
238, 3.00000000e-06, 1.65000000e-07, 0.00000000e+00
239, 0.00000000e+00, 1.70000000e-07, 0.00000000e+00
240, 5.00000000e-07, 1.70000000e-07, 0.00000000e+00
241, 1.00000000e-06, 1.70000000e-07, 0.00000000e+00
242, 1.50000000e-06, 1.70000000e-07, 0.00000000e+00
243, 2.00000000e-06, 1.70000000e-07, 0.00000000e+00
244, 2.50000000e-06, 1.70000000e-07, 0.00000000e+00
245, 3.00000000e-06, 1.70000000e-07, 0.00000000e+00
246, 0.00000000e+00, 1.75000000e-07, 0.00000000e+00
247, 5.00000000e-07, 1.75000000e-07, 0.00000000e+00
248, 1.00000000e-06, 1.75000000e-07, 0.00000000e+00
249, 1.50000000e-06, 1.75000000e-07, 0.00000000e+00
250, 2.00000000e-06, 1.75000000e-07, 0.00000000e+00
251, 2.50000000e-06, 1.75000000e-07, 0.00000000e+00
252, 3.00000000e-06, 1.75000000e-07, 0.00000000e+00
253, 0.00000000e+00, 1.80000000e-07, 0.00000000e+00
254, 5.00000000e-07, 1.80000000e-07, 0.00000000e+00
255, 1.00000000e-06, 1.80000000e-07, 0.00000000e+00
256, 1.50000000e-06, 1.80000000e-07, 0.00000000e+00
257, 2.00000000e-06, 1.80000000e-07, 0.00000000e+00
258, 2.50000000e-06, 1.80000000e-07, 0.00000000e+00
259, 3.00000000e-06, 1.80000000e-07, 0.00000000e+00
260, 0.00000000e+00, 1.85000000e-07, 0.00000000e+00
261, 5.00000000e-07, 1.85000000e-07, 0.00000000e+00
262, 1.00000000e-06, 1.85000000e-07, 0.00000000e+00
263, 1.50000000e-06, 1.85000000e-07, 0.00000000e+00
264, 2.00000000e-06, 1.85000000e-07, 0.00000000e+00
265, 2.50000000e-06, 1.85000000e-07, 0.00000000e+00
266, 3.00000000e-06, 1.85000000e-07, 0.00000000e+00
267, 0.00000000e+00, 1.90000000e-07, 0.00000000e+00
268, 5.00000000e-07, 1.90000000e-07, 0.00000000e+00
269, 1.00000000e-06, 1.90000000e-07, 0.00000000e+00
270, 1.50000000e-06, 1.90000000e-07, 0.00000000e+00
271, 2.00000000e-06, 1.90000000e-07, 0.00000000e+00
272, 2.50000000e-06, 1.90000000e-07, 0.00000000e+00
273, 3.00000000e-06, 1.90000000e-07, 0.00000000e+00
274, 0.00000000e+00, 1.95000000e-07, 0.00000000e+00
275, 5.00000000e-07, 1.95000000e-07, 0.00000000e+00
276, 1.00000000e-06, 1.95000000e-07, 0.00000000e+00
277, 1.50000000e-06, 1.95000000e-07, 0.00000000e+00
278, 2.00000000e-06, 1.95000000e-07, 0.00000000e+00
279, 2.50000000e-06, 1.95000000e-07, 0.00000000e+00
280, 3.00000000e-06, 1.95000000e-07, 0.00000000e+00
281, 0.00000000e+00, 2.00000000e-07, 0.00000000e+00
282, 5.00000000e-07, 2.00000000e-07, 0.00000000e+00
283, 1.00000000e-06, 2.00000000e-07, 0.00000000e+00
284, 1.50000000e-06, 2.00000000e-07, 0.00000000e+00
285, 2.00000000e-06, 2.00000000e-07, 0.00000000e+00
286, 2.50000000e-06, 2.00000000e-07, 0.00000000e+00
287, 3.00000000e-06, 2.00000000e-07, 0.00000000e+00
288, 0.00000000e+00, 2.05000000e-07, 0.00000000e+00
289, 5.00000000e-07, 2.05000000e-07, 0.00000000e+00
290, 1.00000000e-06, 2.05000000e-07, 0.00000000e+00
291, 1.50000000e-06, 2.05000000e-07, 0.00000000e+00
292, 2.00000000e-06, 2.05000000e-07, 0.00000000e+00
293, 2.50000000e-06, 2.05000000e-07, 0.00000000e+00
294, 3.00000000e-06, 2.05000000e-07, 0.00000000e+00
295, 0.00000000e+00, 2.10000000e-07, 0.00000000e+00
296, 5.00000000e-07, 2.10000000e-07, 0.00000000e+00
297, 1.00000000e-06, 2.10000000e-07, 0.00000000e+00
298, 1.50000000e-06, 2.10000000e-07, 0.00000000e+00
299, 2.00000000e-06, 2.10000000e-07, 0.00000000e+00
300, 2.50000000e-06, 2.10000000e-07, 0.00000000e+00
301, 3.00000000e-06, 2.10000000e-07, 0.00000000e+00
302, 0.00000000e+00, 2.15000000e-07, 0.00000000e+00
303, 5.00000000e-07, 2.15000000e-07, 0.00000000e+00
304, 1.00000000e-06, 2.15000000e-07, 0.00000000e+00
305, 1.50000000e-06, 2.15000000e-07, 0.00000000e+00
306, 2.00000000e-06, 2.15000000e-07, 0.00000000e+00
307, 2.50000000e-06, 2.15000000e-07, 0.00000000e+00
308, 3.00000000e-06, 2.15000000e-07, 0.00000000e+00
309, 0.00000000e+00, 2.20000000e-07, 0.00000000e+00
310, 5.00000000e-07, 2.20000000e-07, 0.00000000e+00
311, 1.00000000e-06, 2.20000000e-07, 0.00000000e+00
312, 1.50000000e-06, 2.20000000e-07, 0.00000000e+00
313, 2.00000000e-06, 2.20000000e-07, 0.00000000e+00
314, 2.50000000e-06, 2.20000000e-07, 0.00000000e+00
315, 3.00000000e-06, 2.20000000e-07, 0.00000000e+00
316, 0.00000000e+00, 2.25000000e-07, 0.00000000e+00
317, 5.00000000e-07, 2.25000000e-07, 0.00000000e+00
318, 1.00000000e-06, 2.25000000e-07, 0.00000000e+00
319, 1.50000000e-06, 2.25000000e-07, 0.00000000e+00
320, 2.00000000e-06, 2.25000000e-07, 0.00000000e+00
321, 2.50000000e-06, 2.25000000e-07, 0.00000000e+00
322, 3.00000000e-06, 2.25000000e-07, 0.00000000e+00
323, 0.00000000e+00, 2.30000000e-07, 0.00000000e+00
324, 5.00000000e-07, 2.30000000e-07, 0.00000000e+00
325, 1.00000000e-06, 2.30000000e-07, 0.00000000e+00
326, 1.50000000e-06, 2.30000000e-07, 0.00000000e+00
327, 2.00000000e-06, 2.30000000e-07, 0.00000000e+00
328, 2.50000000e-06, 2.30000000e-07, 0.00000000e+00
329, 3.00000000e-06, 2.30000000e-07, 0.00000000e+00
330, 0.00000000e+00, 2.35000000e-07, 0.00000000e+00
331, 5.00000000e-07, 2.35000000e-07, 0.00000000e+00
332, 1.00000000e-06, 2.35000000e-07, 0.00000000e+00
333, 1.50000000e-06, 2.35000000e-07, 0.00000000e+00
334, 2.00000000e-06, 2.35000000e-07, 0.00000000e+00
335, 2.50000000e-06, 2.35000000e-07, 0.00000000e+00
336, 3.00000000e-06, 2.35000000e-07, 0.00000000e+00
337, 0.00000000e+00, 2.40000000e-07, 0.00000000e+00
338, 5.00000000e-07, 2.40000000e-07, 0.00000000e+00
339, 1.00000000e-06, 2.40000000e-07, 0.00000000e+00
340, 1.50000000e-06, 2.40000000e-07, 0.00000000e+00
341, 2.00000000e-06, 2.40000000e-07, 0.00000000e+00
342, 2.50000000e-06, 2.40000000e-07, 0.00000000e+00
343, 3.00000000e-06, 2.40000000e-07, 0.00000000e+00
344, 0.00000000e+00, 2.45000000e-07, 0.00000000e+00
345, 5.00000000e-07, 2.45000000e-07, 0.00000000e+00
346, 1.00000000e-06, 2.45000000e-07, 0.00000000e+00
347, 1.50000000e-06, 2.45000000e-07, 0.00000000e+00
348, 2.00000000e-06, 2.45000000e-07, 0.00000000e+00
349, 2.50000000e-06, 2.45000000e-07, 0.00000000e+00
350, 3.00000000e-06, 2.45000000e-07, 0.00000000e+00
351, 0.00000000e+00, 2.50000000e-07, 0.00000000e+00
352, 5.00000000e-07, 2.50000000e-07, 0.00000000e+00
353, 1.00000000e-06, 2.50000000e-07, 0.00000000e+00
354, 1.50000000e-06, 2.50000000e-07, 0.00000000e+00
355, 2.00000000e-06, 2.50000000e-07, 0.00000000e+00
356, 2.50000000e-06, 2.50000000e-07, 0.00000000e+00
357, 3.00000000e-06, 2.50000000e-07, 0.00000000e+00
358, 0.00000000e+00, 2.55000000e-07, 0.00000000e+00
359, 5.00000000e-07, 2.55000000e-07, 0.00000000e+00
360, 1.00000000e-06, 2.55000000e-07, 0.00000000e+00
361, 1.50000000e-06, 2.55000000e-07, 0.00000000e+00
362, 2.00000000e-06, 2.55000000e-07, 0.00000000e+00
363, 2.50000000e-06, 2.55000000e-07, 0.00000000e+00
364, 3.00000000e-06, 2.55000000e-07, 0.00000000e+00
365, 0.00000000e+00, 2.60000000e-07, 0.00000000e+00
366, 5.00000000e-07, 2.60000000e-07, 0.00000000e+00
367, 1.00000000e-06, 2.60000000e-07, 0.00000000e+00
368, 1.50000000e-06, 2.60000000e-07, 0.00000000e+00
369, 2.00000000e-06, 2.60000000e-07, 0.00000000e+00
370, 2.50000000e-06, 2.60000000e-07, 0.00000000e+00
371, 3.00000000e-06, 2.60000000e-07, 0.00000000e+00
372, 0.00000000e+00, 2.65000000e-07, 0.00000000e+00
373, 5.00000000e-07, 2.65000000e-07, 0.00000000e+00
374, 1.00000000e-06, 2.65000000e-07, 0.00000000e+00
375, 1.50000000e-06, 2.65000000e-07, 0.00000000e+00
376, 2.00000000e-06, 2.65000000e-07, 0.00000000e+00
377, 2.50000000e-06, 2.65000000e-07, 0.00000000e+00
378, 3.00000000e-06, 2.65000000e-07, 0.00000000e+00
379, 0.00000000e+00, 2.70000000e-07, 0.00000000e+00
380, 5.00000000e-07, 2.70000000e-07, 0.00000000e+00
381, 1.00000000e-06, 2.70000000e-07, 0.00000000e+00
382, 1.50000000e-06, 2.70000000e-07, 0.00000000e+00
383, 2.00000000e-06, 2.70000000e-07, 0.00000000e+00
384, 2.50000000e-06, 2.70000000e-07, 0.00000000e+00
385, 3.00000000e-06, 2.70000000e-07, 0.00000000e+00
386, 0.00000000e+00, 2.75000000e-07, 0.00000000e+00
387, 5.00000000e-07, 2.75000000e-07, 0.00000000e+00
388, 1.00000000e-06, 2.75000000e-07, 0.00000000e+00
389, 1.50000000e-06, 2.75000000e-07, 0.00000000e+00
390, 2.00000000e-06, 2.75000000e-07, 0.00000000e+00
391, 2.50000000e-06, 2.75000000e-07, 0.00000000e+00
392, 3.00000000e-06, 2.75000000e-07, 0.00000000e+00
393, 0.00000000e+00, 2.80000000e-07, 0.00000000e+00
394, 5.00000000e-07, 2.80000000e-07, 0.00000000e+00
395, 1.00000000e-06, 2.80000000e-07, 0.00000000e+00
396, 1.50000000e-06, 2.80000000e-07, 0.00000000e+00
397, 2.00000000e-06, 2.80000000e-07, 0.00000000e+00
398, 2.50000000e-06, 2.80000000e-07, 0.00000000e+00
399, 3.00000000e-06, 2.80000000e-07, 0.00000000e+00
400, 0.00000000e+00, 2.85000000e-07, 0.00000000e+00
401, 5.00000000e-07, 2.85000000e-07, 0.00000000e+00
402, 1.00000000e-06, 2.85000000e-07, 0.00000000e+00
403, 1.50000000e-06, 2.85000000e-07, 0.00000000e+00
404, 2.00000000e-06, 2.85000000e-07, 0.00000000e+00
405, 2.50000000e-06, 2.85000000e-07, 0.00000000e+00
406, 3.00000000e-06, 2.85000000e-07, 0.00000000e+00
407, 0.00000000e+00, 2.90000000e-07, 0.00000000e+00
408, 5.00000000e-07, 2.90000000e-07, 0.00000000e+00
409, 1.00000000e-06, 2.90000000e-07, 0.00000000e+00
410, 1.50000000e-06, 2.90000000e-07, 0.00000000e+00
411, 2.00000000e-06, 2.90000000e-07, 0.00000000e+00
412, 2.50000000e-06, 2.90000000e-07, 0.00000000e+00
413, 3.00000000e-06, 2.90000000e-07, 0.00000000e+00
414, 0.00000000e+00, 2.95000000e-07, 0.00000000e+00
415, 5.00000000e-07, 2.95000000e-07, 0.00000000e+00
416, 1.00000000e-06, 2.95000000e-07, 0.00000000e+00
417, 1.50000000e-06, 2.95000000e-07, 0.00000000e+00
418, 2.00000000e-06, 2.95000000e-07, 0.00000000e+00
419, 2.50000000e-06, 2.95000000e-07, 0.00000000e+00
420, 3.00000000e-06, 2.95000000e-07, 0.00000000e+00
421, 0.00000000e+00, 3.00000000e-07, 0.00000000e+00
422, 5.00000000e-07, 3.00000000e-07, 0.00000000e+00
423, 1.00000000e-06, 3.00000000e-07, 0.00000000e+00
424, 1.50000000e-06, 3.00000000e-07, 0.00000000e+00
425, 2.00000000e-06, 3.00000000e-07, 0.00000000e+00
426, 2.50000000e-06, 3.00000000e-07, 0.00000000e+00
427, 3.00000000e-06, 3.00000000e-07, 0.00000000e+00
428, 0.00000000e+00, 3.05000000e-07, 0.00000000e+00
429, 5.00000000e-07, 3.05000000e-07, 0.00000000e+00
430, 1.00000000e-06, 3.05000000e-07, 0.00000000e+00
431, 1.50000000e-06, 3.05000000e-07, 0.00000000e+00
432, 2.00000000e-06, 3.05000000e-07, 0.00000000e+00
433, 2.50000000e-06, 3.05000000e-07, 0.00000000e+00
434, 3.00000000e-06, 3.05000000e-07, 0.00000000e+00
435, 0.00000000e+00, 3.10000000e-07, 0.00000000e+00
436, 5.00000000e-07, 3.10000000e-07, 0.00000000e+00
437, 1.00000000e-06, 3.10000000e-07, 0.00000000e+00
438, 1.50000000e-06, 3.10000000e-07, 0.00000000e+00
439, 2.00000000e-06, 3.10000000e-07, 0.00000000e+00
440, 2.50000000e-06, 3.10000000e-07, 0.00000000e+00
441, 3.00000000e-06, 3.10000000e-07, 0.00000000e+00
442, 0.00000000e+00, 3.15000000e-07, 0.00000000e+00
443, 5.00000000e-07, 3.15000000e-07, 0.00000000e+00
444, 1.00000000e-06, 3.15000000e-07, 0.00000000e+00
445, 1.50000000e-06, 3.15000000e-07, 0.00000000e+00
446, 2.00000000e-06, 3.15000000e-07, 0.00000000e+00
447, 2.50000000e-06, 3.15000000e-07, 0.00000000e+00
448, 3.00000000e-06, 3.15000000e-07, 0.00000000e+00
449, 0.00000000e+00, 3.20000000e-07, 0.00000000e+00
450, 5.00000000e-07, 3.20000000e-07, 0.00000000e+00
451, 1.00000000e-06, 3.20000000e-07, 0.00000000e+00
452, 1.50000000e-06, 3.20000000e-07, 0.00000000e+00
453, 2.00000000e-06, 3.20000000e-07, 0.00000000e+00
454, 2.50000000e-06, 3.20000000e-07, 0.00000000e+00
455, 3.00000000e-06, 3.20000000e-07, 0.00000000e+00
456, 0.00000000e+00, 3.25000000e-07, 0.00000000e+00
457, 5.00000000e-07, 3.25000000e-07, 0.00000000e+00
458, 1.00000000e-06, 3.25000000e-07, 0.00000000e+00
459, 1.50000000e-06, 3.25000000e-07, 0.00000000e+00
460, 2.00000000e-06, 3.25000000e-07, 0.00000000e+00
461, 2.50000000e-06, 3.25000000e-07, 0.00000000e+00
462, 3.00000000e-06, 3.25000000e-07, 0.00000000e+00
463, 0.00000000e+00, 3.30000000e-07, 0.00000000e+00
464, 5.00000000e-07, 3.30000000e-07, 0.00000000e+00
465, 1.00000000e-06, 3.30000000e-07, 0.00000000e+00
466, 1.50000000e-06, 3.30000000e-07, 0.00000000e+00
467, 2.00000000e-06, 3.30000000e-07, 0.00000000e+00
468, 2.50000000e-06, 3.30000000e-07, 0.00000000e+00
469, 3.00000000e-06, 3.30000000e-07, 0.00000000e+00
470, 0.00000000e+00, 3.35000000e-07, 0.00000000e+00
471, 5.00000000e-07, 3.35000000e-07, 0.00000000e+00
472, 1.00000000e-06, 3.35000000e-07, 0.00000000e+00
473, 1.50000000e-06, 3.35000000e-07, 0.00000000e+00
474, 2.00000000e-06, 3.35000000e-07, 0.00000000e+00
475, 2.50000000e-06, 3.35000000e-07, 0.00000000e+00
476, 3.00000000e-06, 3.35000000e-07, 0.00000000e+00
477, 0.00000000e+00, 3.40000000e-07, 0.00000000e+00
478, 5.00000000e-07, 3.40000000e-07, 0.00000000e+00
479, 1.00000000e-06, 3.40000000e-07, 0.00000000e+00
480, 1.50000000e-06, 3.40000000e-07, 0.00000000e+00
481, 2.00000000e-06, 3.40000000e-07, 0.00000000e+00
482, 2.50000000e-06, 3.40000000e-07, 0.00000000e+00
483, 3.00000000e-06, 3.40000000e-07, 0.00000000e+00
484, 0.00000000e+00, 3.45000000e-07, 0.00000000e+00
485, 5.00000000e-07, 3.45000000e-07, 0.00000000e+00
486, 1.00000000e-06, 3.45000000e-07, 0.00000000e+00
487, 1.50000000e-06, 3.45000000e-07, 0.00000000e+00
488, 2.00000000e-06, 3.45000000e-07, 0.00000000e+00
489, 2.50000000e-06, 3.45000000e-07, 0.00000000e+00
490, 3.00000000e-06, 3.45000000e-07, 0.00000000e+00
491, 0.00000000e+00, 3.50000000e-07, 0.00000000e+00
492, 5.00000000e-07, 3.50000000e-07, 0.00000000e+00
493, 1.00000000e-06, 3.50000000e-07, 0.00000000e+00
494, 1.50000000e-06, 3.50000000e-07, 0.00000000e+00
495, 2.00000000e-06, 3.50000000e-07, 0.00000000e+00
496, 2.50000000e-06, 3.50000000e-07, 0.00000000e+00
497, 3.00000000e-06, 3.50000000e-07, 0.00000000e+00
498, 0.00000000e+00, 3.55000000e-07, 0.00000000e+00
499, 5.00000000e-07, 3.55000000e-07, 0.00000000e+00
500, 1.00000000e-06, 3.55000000e-07, 0.00000000e+00
501, 1.50000000e-06, 3.55000000e-07, 0.00000000e+00
502, 2.00000000e-06, 3.55000000e-07, 0.00000000e+00
503, 2.50000000e-06, 3.55000000e-07, 0.00000000e+00
504, 3.00000000e-06, 3.55000000e-07, 0.00000000e+00
505, 0.00000000e+00, 3.60000000e-07, 0.00000000e+00
506, 5.00000000e-07, 3.60000000e-07, 0.00000000e+00
507, 1.00000000e-06, 3.60000000e-07, 0.00000000e+00
508, 1.50000000e-06, 3.60000000e-07, 0.00000000e+00
509, 2.00000000e-06, 3.60000000e-07, 0.00000000e+00
510, 2.50000000e-06, 3.60000000e-07, 0.00000000e+00
511, 3.00000000e-06, 3.60000000e-07, 0.00000000e+00
512, 0.00000000e+00, 3.65000000e-07, 0.00000000e+00
513, 5.00000000e-07, 3.65000000e-07, 0.00000000e+00
514, 1.00000000e-06, 3.65000000e-07, 0.00000000e+00
515, 1.50000000e-06, 3.65000000e-07, 0.00000000e+00
516, 2.00000000e-06, 3.65000000e-07, 0.00000000e+00
517, 2.50000000e-06, 3.65000000e-07, 0.00000000e+00
518, 3.00000000e-06, 3.65000000e-07, 0.00000000e+00
519, 0.00000000e+00, 3.70000000e-07, 0.00000000e+00
520, 5.00000000e-07, 3.70000000e-07, 0.00000000e+00
521, 1.00000000e-06, 3.70000000e-07, 0.00000000e+00
522, 1.50000000e-06, 3.70000000e-07, 0.00000000e+00
523, 2.00000000e-06, 3.70000000e-07, 0.00000000e+00
524, 2.50000000e-06, 3.70000000e-07, 0.00000000e+00
525, 3.00000000e-06, 3.70000000e-07, 0.00000000e+00
526, 0.00000000e+00, 3.75000000e-07, 0.00000000e+00
527, 5.00000000e-07, 3.75000000e-07, 0.00000000e+00
528, 1.00000000e-06, 3.75000000e-07, 0.00000000e+00
529, 1.50000000e-06, 3.75000000e-07, 0.00000000e+00
530, 2.00000000e-06, 3.75000000e-07, 0.00000000e+00
531, 2.50000000e-06, 3.75000000e-07, 0.00000000e+00
532, 3.00000000e-06, 3.75000000e-07, 0.00000000e+00
533, 0.00000000e+00, 3.80000000e-07, 0.00000000e+00
534, 5.00000000e-07, 3.80000000e-07, 0.00000000e+00
535, 1.00000000e-06, 3.80000000e-07, 0.00000000e+00
536, 1.50000000e-06, 3.80000000e-07, 0.00000000e+00
537, 2.00000000e-06, 3.80000000e-07, 0.00000000e+00
538, 2.50000000e-06, 3.80000000e-07, 0.00000000e+00
539, 3.00000000e-06, 3.80000000e-07, 0.00000000e+00
540, 0.00000000e+00, 3.85000000e-07, 0.00000000e+00
541, 5.00000000e-07, 3.85000000e-07, 0.00000000e+00
542, 1.00000000e-06, 3.85000000e-07, 0.00000000e+00
543, 1.50000000e-06, 3.85000000e-07, 0.00000000e+00
544, 2.00000000e-06, 3.85000000e-07, 0.00000000e+00
545, 2.50000000e-06, 3.85000000e-07, 0.00000000e+00
546, 3.00000000e-06, 3.85000000e-07, 0.00000000e+00
547, 0.00000000e+00, 3.90000000e-07, 0.00000000e+00
548, 5.00000000e-07, 3.90000000e-07, 0.00000000e+00
549, 1.00000000e-06, 3.90000000e-07, 0.00000000e+00
550, 1.50000000e-06, 3.90000000e-07, 0.00000000e+00
551, 2.00000000e-06, 3.90000000e-07, 0.00000000e+00
552, 2.50000000e-06, 3.90000000e-07, 0.00000000e+00
553, 3.00000000e-06, 3.90000000e-07, 0.00000000e+00
554, 0.00000000e+00, 3.95000000e-07, 0.00000000e+00
555, 5.00000000e-07, 3.95000000e-07, 0.00000000e+00
556, 1.00000000e-06, 3.95000000e-07, 0.00000000e+00
557, 1.50000000e-06, 3.95000000e-07, 0.00000000e+00
558, 2.00000000e-06, 3.95000000e-07, 0.00000000e+00
559, 2.50000000e-06, 3.95000000e-07, 0.00000000e+00
560, 3.00000000e-06, 3.95000000e-07, 0.00000000e+00
561, 0.00000000e+00, 4.00000000e-07, 0.00000000e+00
562, 5.00000000e-07, 4.00000000e-07, 0.00000000e+00
563, 1.00000000e-06, 4.00000000e-07, 0.00000000e+00
564, 1.50000000e-06, 4.00000000e-07, 0.00000000e+00
565, 2.00000000e-06, 4.00000000e-07, 0.00000000e+00
566, 2.50000000e-06, 4.00000000e-07, 0.00000000e+00
567, 3.00000000e-06, 4.00000000e-07, 0.00000000e+00
568, 0.00000000e+00, 4.05000000e-07, 0.00000000e+00
569, 5.00000000e-07, 4.05000000e-07, 0.00000000e+00
570, 1.00000000e-06, 4.05000000e-07, 0.00000000e+00
571, 1.50000000e-06, 4.05000000e-07, 0.00000000e+00
572, 2.00000000e-06, 4.05000000e-07, 0.00000000e+00
573, 2.50000000e-06, 4.05000000e-07, 0.00000000e+00
574, 3.00000000e-06, 4.05000000e-07, 0.00000000e+00
575, 0.00000000e+00, 4.10000000e-07, 0.00000000e+00
576, 5.00000000e-07, 4.10000000e-07, 0.00000000e+00
577, 1.00000000e-06, 4.10000000e-07, 0.00000000e+00
578, 1.50000000e-06, 4.10000000e-07, 0.00000000e+00
579, 2.00000000e-06, 4.10000000e-07, 0.00000000e+00
580, 2.50000000e-06, 4.10000000e-07, 0.00000000e+00
581, 3.00000000e-06, 4.10000000e-07, 0.00000000e+00
582, 0.00000000e+00, 4.15000000e-07, 0.00000000e+00
583, 5.00000000e-07, 4.15000000e-07, 0.00000000e+00
584, 1.00000000e-06, 4.15000000e-07, 0.00000000e+00
585, 1.50000000e-06, 4.15000000e-07, 0.00000000e+00
586, 2.00000000e-06, 4.15000000e-07, 0.00000000e+00
587, 2.50000000e-06, 4.15000000e-07, 0.00000000e+00
588, 3.00000000e-06, 4.15000000e-07, 0.00000000e+00
589, 0.00000000e+00, 4.20000000e-07, 0.00000000e+00
590, 5.00000000e-07, 4.20000000e-07, 0.00000000e+00
591, 1.00000000e-06, 4.20000000e-07, 0.00000000e+00
592, 1.50000000e-06, 4.20000000e-07, 0.00000000e+00
593, 2.00000000e-06, 4.20000000e-07, 0.00000000e+00
594, 2.50000000e-06, 4.20000000e-07, 0.00000000e+00
595, 3.00000000e-06, 4.20000000e-07, 0.00000000e+00
596, 0.00000000e+00, 4.25000000e-07, 0.00000000e+00
597, 5.00000000e-07, 4.25000000e-07, 0.00000000e+00
598, 1.00000000e-06, 4.25000000e-07, 0.00000000e+00
599, 1.50000000e-06, 4.25000000e-07, 0.00000000e+00
600, 2.00000000e-06, 4.25000000e-07, 0.00000000e+00
601, 2.50000000e-06, 4.25000000e-07, 0.00000000e+00
602, 3.00000000e-06, 4.25000000e-07, 0.00000000e+00
603, 0.00000000e+00, 4.30000000e-07, 0.00000000e+00
604, 5.00000000e-07, 4.30000000e-07, 0.00000000e+00
605, 1.00000000e-06, 4.30000000e-07, 0.00000000e+00
606, 1.50000000e-06, 4.30000000e-07, 0.00000000e+00
607, 2.00000000e-06, 4.30000000e-07, 0.00000000e+00
608, 2.50000000e-06, 4.30000000e-07, 0.00000000e+00
609, 3.00000000e-06, 4.30000000e-07, 0.00000000e+00
610, 0.00000000e+00, 4.35000000e-07, 0.00000000e+00
611, 5.00000000e-07, 4.35000000e-07, 0.00000000e+00
612, 1.00000000e-06, 4.35000000e-07, 0.00000000e+00
613, 1.50000000e-06, 4.35000000e-07, 0.00000000e+00
614, 2.00000000e-06, 4.35000000e-07, 0.00000000e+00
615, 2.50000000e-06, 4.35000000e-07, 0.00000000e+00
616, 3.00000000e-06, 4.35000000e-07, 0.00000000e+00
617, 0.00000000e+00, 4.40000000e-07, 0.00000000e+00
618, 5.00000000e-07, 4.40000000e-07, 0.00000000e+00
619, 1.00000000e-06, 4.40000000e-07, 0.00000000e+00
620, 1.50000000e-06, 4.40000000e-07, 0.00000000e+00
621, 2.00000000e-06, 4.40000000e-07, 0.00000000e+00
622, 2.50000000e-06, 4.40000000e-07, 0.00000000e+00
623, 3.00000000e-06, 4.40000000e-07, 0.00000000e+00
624, 0.00000000e+00, 4.45000000e-07, 0.00000000e+00
625, 5.00000000e-07, 4.45000000e-07, 0.00000000e+00
626, 1.00000000e-06, 4.45000000e-07, 0.00000000e+00
627, 1.50000000e-06, 4.45000000e-07, 0.00000000e+00
628, 2.00000000e-06, 4.45000000e-07, 0.00000000e+00
629, 2.50000000e-06, 4.45000000e-07, 0.00000000e+00
630, 3.00000000e-06, 4.45000000e-07, 0.00000000e+00
631, 0.00000000e+00, 4.50000000e-07, 0.00000000e+00
632, 5.00000000e-07, 4.50000000e-07, 0.00000000e+00
633, 1.00000000e-06, 4.50000000e-07, 0.00000000e+00
634, 1.50000000e-06, 4.50000000e-07, 0.00000000e+00
635, 2.00000000e-06, 4.50000000e-07, 0.00000000e+00
636, 2.50000000e-06, 4.50000000e-07, 0.00000000e+00
637, 3.00000000e-06, 4.50000000e-07, 0.00000000e+00
638, 0.00000000e+00, 4.55000000e-07, 0.00000000e+00
639, 5.00000000e-07, 4.55000000e-07, 0.00000000e+00
640, 1.00000000e-06, 4.55000000e-07, 0.00000000e+00
641, 1.50000000e-06, 4.55000000e-07, 0.00000000e+00
642, 2.00000000e-06, 4.55000000e-07, 0.00000000e+00
643, 2.50000000e-06, 4.55000000e-07, 0.00000000e+00
644, 3.00000000e-06, 4.55000000e-07, 0.00000000e+00
645, 0.00000000e+00, 4.60000000e-07, 0.00000000e+00
646, 5.00000000e-07, 4.60000000e-07, 0.00000000e+00
647, 1.00000000e-06, 4.60000000e-07, 0.00000000e+00
648, 1.50000000e-06, 4.60000000e-07, 0.00000000e+00
649, 2.00000000e-06, 4.60000000e-07, 0.00000000e+00
650, 2.50000000e-06, 4.60000000e-07, 0.00000000e+00
651, 3.00000000e-06, 4.60000000e-07, 0.00000000e+00
652, 0.00000000e+00, 4.65000000e-07, 0.00000000e+00
653, 5.00000000e-07, 4.65000000e-07, 0.00000000e+00
654, 1.00000000e-06, 4.65000000e-07, 0.00000000e+00
655, 1.50000000e-06, 4.65000000e-07, 0.00000000e+00
656, 2.00000000e-06, 4.65000000e-07, 0.00000000e+00
657, 2.50000000e-06, 4.65000000e-07, 0.00000000e+00
658, 3.00000000e-06, 4.65000000e-07, 0.00000000e+00
659, 0.00000000e+00, 4.70000000e-07, 0.00000000e+00
660, 5.00000000e-07, 4.70000000e-07, 0.00000000e+00
661, 1.00000000e-06, 4.70000000e-07, 0.00000000e+00
662, 1.50000000e-06, 4.70000000e-07, 0.00000000e+00
663, 2.00000000e-06, 4.70000000e-07, 0.00000000e+00
664, 2.50000000e-06, 4.70000000e-07, 0.00000000e+00
665, 3.00000000e-06, 4.70000000e-07, 0.00000000e+00
666, 0.00000000e+00, 4.75000000e-07, 0.00000000e+00
667, 5.00000000e-07, 4.75000000e-07, 0.00000000e+00
668, 1.00000000e-06, 4.75000000e-07, 0.00000000e+00
669, 1.50000000e-06, 4.75000000e-07, 0.00000000e+00
670, 2.00000000e-06, 4.75000000e-07, 0.00000000e+00
671, 2.50000000e-06, 4.75000000e-07, 0.00000000e+00
672, 3.00000000e-06, 4.75000000e-07, 0.00000000e+00
673, 0.00000000e+00, 4.80000000e-07, 0.00000000e+00
674, 5.00000000e-07, 4.80000000e-07, 0.00000000e+00
675, 1.00000000e-06, 4.80000000e-07, 0.00000000e+00
676, 1.50000000e-06, 4.80000000e-07, 0.00000000e+00
677, 2.00000000e-06, 4.80000000e-07, 0.00000000e+00
678, 2.50000000e-06, 4.80000000e-07, 0.00000000e+00
679, 3.00000000e-06, 4.80000000e-07, 0.00000000e+00
680, 0.00000000e+00, 4.85000000e-07, 0.00000000e+00
681, 5.00000000e-07, 4.85000000e-07, 0.00000000e+00
682, 1.00000000e-06, 4.85000000e-07, 0.00000000e+00
683, 1.50000000e-06, 4.85000000e-07, 0.00000000e+00
684, 2.00000000e-06, 4.85000000e-07, 0.00000000e+00
685, 2.50000000e-06, 4.85000000e-07, 0.00000000e+00
686, 3.00000000e-06, 4.85000000e-07, 0.00000000e+00
687, 0.00000000e+00, 4.90000000e-07, 0.00000000e+00
688, 5.00000000e-07, 4.90000000e-07, 0.00000000e+00
689, 1.00000000e-06, 4.90000000e-07, 0.00000000e+00
690, 1.50000000e-06, 4.90000000e-07, 0.00000000e+00
691, 2.00000000e-06, 4.90000000e-07, 0.00000000e+00
692, 2.50000000e-06, 4.90000000e-07, 0.00000000e+00
693, 3.00000000e-06, 4.90000000e-07, 0.00000000e+00
694, 0.00000000e+00, 4.95000000e-07, 0.00000000e+00
695, 5.00000000e-07, 4.95000000e-07, 0.00000000e+00
696, 1.00000000e-06, 4.95000000e-07, 0.00000000e+00
697, 1.50000000e-06, 4.95000000e-07, 0.00000000e+00
698, 2.00000000e-06, 4.95000000e-07, 0.00000000e+00
699, 2.50000000e-06, 4.95000000e-07, 0.00000000e+00
700, 3.00000000e-06, 4.95000000e-07, 0.00000000e+00
701, 0.00000000e+00, 5.00000000e-07, 0.00000000e+00
702, 5.00000000e-07, 5.00000000e-07, 0.00000000e+00
703, 1.00000000e-06, 5.00000000e-07, 0.00000000e+00
704, 1.50000000e-06, 5.00000000e-07, 0.00000000e+00
705, 2.00000000e-06, 5.00000000e-07, 0.00000000e+00
706, 2.50000000e-06, 5.00000000e-07, 0.00000000e+00
707, 3.00000000e-06, 5.00000000e-07, 0.00000000e+00
708, 0.00000000e+00, 0.00000000e+00, 1.00000000e-07
709, 5.00000000e-07, 0.00000000e+00, 1.00000000e-07
710, 1.00000000e-06, 0.00000000e+00, 1.00000000e-07
711, 1.50000000e-06, 0.00000000e+00, 1.00000000e-07
712, 2.00000000e-06, 0.00000000e+00, 1.00000000e-07
713, 2.50000000e-06, 0.00000000e+00, 1.00000000e-07
714, 3.00000000e-06, 0.00000000e+00, 1.00000000e-07
715, 0.00000000e+00, 5.00000000e-09, 1.00000000e-07
716, 5.00000000e-07, 5.00000000e-09, 1.00000000e-07
717, 1.00000000e-06, 5.00000000e-09, 1.00000000e-07
718, 1.50000000e-06, 5.00000000e-09, 1.00000000e-07
719, 2.00000000e-06, 5.00000000e-09, 1.00000000e-07
720, 2.50000000e-06, 5.00000000e-09, 1.00000000e-07
721, 3.00000000e-06, 5.00000000e-09, 1.00000000e-07
722, 0.00000000e+00, 1.00000000e-08, 1.00000000e-07
723, 5.00000000e-07, 1.00000000e-08, 1.00000000e-07
724, 1.00000000e-06, 1.00000000e-08, 1.00000000e-07
725, 1.50000000e-06, 1.00000000e-08, 1.00000000e-07
726, 2.00000000e-06, 1.00000000e-08, 1.00000000e-07
727, 2.50000000e-06, 1.00000000e-08, 1.00000000e-07
728, 3.00000000e-06, 1.00000000e-08, 1.00000000e-07
729, 0.00000000e+00, 1.50000000e-08, 1.00000000e-07
730, 5.00000000e-07, 1.50000000e-08, 1.00000000e-07
731, 1.00000000e-06, 1.50000000e-08, 1.00000000e-07
732, 1.50000000e-06, 1.50000000e-08, 1.00000000e-07
733, 2.00000000e-06, 1.50000000e-08, 1.00000000e-07
734, 2.50000000e-06, 1.50000000e-08, 1.00000000e-07
735, 3.00000000e-06, 1.50000000e-08, 1.00000000e-07
736, 0.00000000e+00, 2.00000000e-08, 1.00000000e-07
737, 5.00000000e-07, 2.00000000e-08, 1.00000000e-07
738, 1.00000000e-06, 2.00000000e-08, 1.00000000e-07
739, 1.50000000e-06, 2.00000000e-08, 1.00000000e-07
740, 2.00000000e-06, 2.00000000e-08, 1.00000000e-07
741, 2.50000000e-06, 2.00000000e-08, 1.00000000e-07
742, 3.00000000e-06, 2.00000000e-08, 1.00000000e-07
743, 0.00000000e+00, 2.50000000e-08, 1.00000000e-07
744, 5.00000000e-07, 2.50000000e-08, 1.00000000e-07
745, 1.00000000e-06, 2.50000000e-08, 1.00000000e-07
746, 1.50000000e-06, 2.50000000e-08, 1.00000000e-07
747, 2.00000000e-06, 2.50000000e-08, 1.00000000e-07
748, 2.50000000e-06, 2.50000000e-08, 1.00000000e-07
749, 3.00000000e-06, 2.50000000e-08, 1.00000000e-07
750, 0.00000000e+00, 3.00000000e-08, 1.00000000e-07
751, 5.00000000e-07, 3.00000000e-08, 1.00000000e-07
752, 1.00000000e-06, 3.00000000e-08, 1.00000000e-07
753, 1.50000000e-06, 3.00000000e-08, 1.00000000e-07
754, 2.00000000e-06, 3.00000000e-08, 1.00000000e-07
755, 2.50000000e-06, 3.00000000e-08, 1.00000000e-07
756, 3.00000000e-06, 3.00000000e-08, 1.00000000e-07
757, 0.00000000e+00, 3.50000000e-08, 1.00000000e-07
758, 5.00000000e-07, 3.50000000e-08, 1.00000000e-07
759, 1.00000000e-06, 3.50000000e-08, 1.00000000e-07
760, 1.50000000e-06, 3.50000000e-08, 1.00000000e-07
761, 2.00000000e-06, 3.50000000e-08, 1.00000000e-07
762, 2.50000000e-06, 3.50000000e-08, 1.00000000e-07
763, 3.00000000e-06, 3.50000000e-08, 1.00000000e-07
764, 0.00000000e+00, 4.00000000e-08, 1.00000000e-07
765, 5.00000000e-07, 4.00000000e-08, 1.00000000e-07
766, 1.00000000e-06, 4.00000000e-08, 1.00000000e-07
767, 1.50000000e-06, 4.00000000e-08, 1.00000000e-07
768, 2.00000000e-06, 4.00000000e-08, 1.00000000e-07
769, 2.50000000e-06, 4.00000000e-08, 1.00000000e-07
770, 3.00000000e-06, 4.00000000e-08, 1.00000000e-07
771, 0.00000000e+00, 4.50000000e-08, 1.00000000e-07
772, 5.00000000e-07, 4.50000000e-08, 1.00000000e-07
773, 1.00000000e-06, 4.50000000e-08, 1.00000000e-07
774, 1.50000000e-06, 4.50000000e-08, 1.00000000e-07
775, 2.00000000e-06, 4.50000000e-08, 1.00000000e-07
776, 2.50000000e-06, 4.50000000e-08, 1.00000000e-07
777, 3.00000000e-06, 4.50000000e-08, 1.00000000e-07
778, 0.00000000e+00, 5.00000000e-08, 1.00000000e-07
779, 5.00000000e-07, 5.00000000e-08, 1.00000000e-07
780, 1.00000000e-06, 5.00000000e-08, 1.00000000e-07
781, 1.50000000e-06, 5.00000000e-08, 1.00000000e-07
782, 2.00000000e-06, 5.00000000e-08, 1.00000000e-07
783, 2.50000000e-06, 5.00000000e-08, 1.00000000e-07
784, 3.00000000e-06, 5.00000000e-08, 1.00000000e-07
785, 0.00000000e+00, 5.50000000e-08, 1.00000000e-07
786, 5.00000000e-07, 5.50000000e-08, 1.00000000e-07
787, 1.00000000e-06, 5.50000000e-08, 1.00000000e-07
788, 1.50000000e-06, 5.50000000e-08, 1.00000000e-07
789, 2.00000000e-06, 5.50000000e-08, 1.00000000e-07
790, 2.50000000e-06, 5.50000000e-08, 1.00000000e-07
791, 3.00000000e-06, 5.50000000e-08, 1.00000000e-07
792, 0.00000000e+00, 6.00000000e-08, 1.00000000e-07
793, 5.00000000e-07, 6.00000000e-08, 1.00000000e-07
794, 1.00000000e-06, 6.00000000e-08, 1.00000000e-07
795, 1.50000000e-06, 6.00000000e-08, 1.00000000e-07
796, 2.00000000e-06, 6.00000000e-08, 1.00000000e-07
797, 2.50000000e-06, 6.00000000e-08, 1.00000000e-07
798, 3.00000000e-06, 6.00000000e-08, 1.00000000e-07
799, 0.00000000e+00, 6.50000000e-08, 1.00000000e-07
800, 5.00000000e-07, 6.50000000e-08, 1.00000000e-07
801, 1.00000000e-06, 6.50000000e-08, 1.00000000e-07
802, 1.50000000e-06, 6.50000000e-08, 1.00000000e-07
803, 2.00000000e-06, 6.50000000e-08, 1.00000000e-07
804, 2.50000000e-06, 6.50000000e-08, 1.00000000e-07
805, 3.00000000e-06, 6.50000000e-08, 1.00000000e-07
806, 0.00000000e+00, 7.00000000e-08, 1.00000000e-07
807, 5.00000000e-07, 7.00000000e-08, 1.00000000e-07
808, 1.00000000e-06, 7.00000000e-08, 1.00000000e-07
809, 1.50000000e-06, 7.00000000e-08, 1.00000000e-07
810, 2.00000000e-06, 7.00000000e-08, 1.00000000e-07
811, 2.50000000e-06, 7.00000000e-08, 1.00000000e-07
812, 3.00000000e-06, 7.00000000e-08, 1.00000000e-07
813, 0.00000000e+00, 7.50000000e-08, 1.00000000e-07
814, 5.00000000e-07, 7.50000000e-08, 1.00000000e-07
815, 1.00000000e-06, 7.50000000e-08, 1.00000000e-07
816, 1.50000000e-06, 7.50000000e-08, 1.00000000e-07
817, 2.00000000e-06, 7.50000000e-08, 1.00000000e-07
818, 2.50000000e-06, 7.50000000e-08, 1.00000000e-07
819, 3.00000000e-06, 7.50000000e-08, 1.00000000e-07
820, 0.00000000e+00, 8.00000000e-08, 1.00000000e-07
821, 5.00000000e-07, 8.00000000e-08, 1.00000000e-07
822, 1.00000000e-06, 8.00000000e-08, 1.00000000e-07
823, 1.50000000e-06, 8.00000000e-08, 1.00000000e-07
824, 2.00000000e-06, 8.00000000e-08, 1.00000000e-07
825, 2.50000000e-06, 8.00000000e-08, 1.00000000e-07
826, 3.00000000e-06, 8.00000000e-08, 1.00000000e-07
827, 0.00000000e+00, 8.50000000e-08, 1.00000000e-07
828, 5.00000000e-07, 8.50000000e-08, 1.00000000e-07
829, 1.00000000e-06, 8.50000000e-08, 1.00000000e-07
830, 1.50000000e-06, 8.50000000e-08, 1.00000000e-07
831, 2.00000000e-06, 8.50000000e-08, 1.00000000e-07
832, 2.50000000e-06, 8.50000000e-08, 1.00000000e-07
833, 3.00000000e-06, 8.50000000e-08, 1.00000000e-07
834, 0.00000000e+00, 9.00000000e-08, 1.00000000e-07
835, 5.00000000e-07, 9.00000000e-08, 1.00000000e-07
836, 1.00000000e-06, 9.00000000e-08, 1.00000000e-07
837, 1.50000000e-06, 9.00000000e-08, 1.00000000e-07
838, 2.00000000e-06, 9.00000000e-08, 1.00000000e-07
839, 2.50000000e-06, 9.00000000e-08, 1.00000000e-07
840, 3.00000000e-06, 9.00000000e-08, 1.00000000e-07
841, 0.00000000e+00, 9.50000000e-08, 1.00000000e-07
842, 5.00000000e-07, 9.50000000e-08, 1.00000000e-07
843, 1.00000000e-06, 9.50000000e-08, 1.00000000e-07
844, 1.50000000e-06, 9.50000000e-08, 1.00000000e-07
845, 2.00000000e-06, 9.50000000e-08, 1.00000000e-07
846, 2.50000000e-06, 9.50000000e-08, 1.00000000e-07
847, 3.00000000e-06, 9.50000000e-08, 1.00000000e-07
848, 0.00000000e+00, 1.00000000e-07, 1.00000000e-07
849, 5.00000000e-07, 1.00000000e-07, 1.00000000e-07
850, 1.00000000e-06, 1.00000000e-07, 1.00000000e-07
851, 1.50000000e-06, 1.00000000e-07, 1.00000000e-07
852, 2.00000000e-06, 1.00000000e-07, 1.00000000e-07
853, 2.50000000e-06, 1.00000000e-07, 1.00000000e-07
854, 3.00000000e-06, 1.00000000e-07, 1.00000000e-07
855, 0.00000000e+00, 1.05000000e-07, 1.00000000e-07
856, 5.00000000e-07, 1.05000000e-07, 1.00000000e-07
857, 1.00000000e-06, 1.05000000e-07, 1.00000000e-07
858, 1.50000000e-06, 1.05000000e-07, 1.00000000e-07
859, 2.00000000e-06, 1.05000000e-07, 1.00000000e-07
860, 2.50000000e-06, 1.05000000e-07, 1.00000000e-07
861, 3.00000000e-06, 1.05000000e-07, 1.00000000e-07
862, 0.00000000e+00, 1.10000000e-07, 1.00000000e-07
863, 5.00000000e-07, 1.10000000e-07, 1.00000000e-07
864, 1.00000000e-06, 1.10000000e-07, 1.00000000e-07
865, 1.50000000e-06, 1.10000000e-07, 1.00000000e-07
866, 2.00000000e-06, 1.10000000e-07, 1.00000000e-07
867, 2.50000000e-06, 1.10000000e-07, 1.00000000e-07
868, 3.00000000e-06, 1.10000000e-07, 1.00000000e-07
869, 0.00000000e+00, 1.15000000e-07, 1.00000000e-07
870, 5.00000000e-07, 1.15000000e-07, 1.00000000e-07
871, 1.00000000e-06, 1.15000000e-07, 1.00000000e-07
872, 1.50000000e-06, 1.15000000e-07, 1.00000000e-07
873, 2.00000000e-06, 1.15000000e-07, 1.00000000e-07
874, 2.50000000e-06, 1.15000000e-07, 1.00000000e-07
875, 3.00000000e-06, 1.15000000e-07, 1.00000000e-07
876, 0.00000000e+00, 1.20000000e-07, 1.00000000e-07
877, 5.00000000e-07, 1.20000000e-07, 1.00000000e-07
878, 1.00000000e-06, 1.20000000e-07, 1.00000000e-07
879, 1.50000000e-06, 1.20000000e-07, 1.00000000e-07
880, 2.00000000e-06, 1.20000000e-07, 1.00000000e-07
881, 2.50000000e-06, 1.20000000e-07, 1.00000000e-07
882, 3.00000000e-06, 1.20000000e-07, 1.00000000e-07
883, 0.00000000e+00, 1.25000000e-07, 1.00000000e-07
884, 5.00000000e-07, 1.25000000e-07, 1.00000000e-07
885, 1.00000000e-06, 1.25000000e-07, 1.00000000e-07
886, 1.50000000e-06, 1.25000000e-07, 1.00000000e-07
887, 2.00000000e-06, 1.25000000e-07, 1.00000000e-07
888, 2.50000000e-06, 1.25000000e-07, 1.00000000e-07
889, 3.00000000e-06, 1.25000000e-07, 1.00000000e-07
890, 0.00000000e+00, 1.30000000e-07, 1.00000000e-07
891, 5.00000000e-07, 1.30000000e-07, 1.00000000e-07
892, 1.00000000e-06, 1.30000000e-07, 1.00000000e-07
893, 1.50000000e-06, 1.30000000e-07, 1.00000000e-07
894, 2.00000000e-06, 1.30000000e-07, 1.00000000e-07
895, 2.50000000e-06, 1.30000000e-07, 1.00000000e-07
896, 3.00000000e-06, 1.30000000e-07, 1.00000000e-07
897, 0.00000000e+00, 1.35000000e-07, 1.00000000e-07
898, 5.00000000e-07, 1.35000000e-07, 1.00000000e-07
899, 1.00000000e-06, 1.35000000e-07, 1.00000000e-07
900, 1.50000000e-06, 1.35000000e-07, 1.00000000e-07
901, 2.00000000e-06, 1.35000000e-07, 1.00000000e-07
902, 2.50000000e-06, 1.35000000e-07, 1.00000000e-07
903, 3.00000000e-06, 1.35000000e-07, 1.00000000e-07
904, 0.00000000e+00, 1.40000000e-07, 1.00000000e-07
905, 5.00000000e-07, 1.40000000e-07, 1.00000000e-07
906, 1.00000000e-06, 1.40000000e-07, 1.00000000e-07
907, 1.50000000e-06, 1.40000000e-07, 1.00000000e-07
908, 2.00000000e-06, 1.40000000e-07, 1.00000000e-07
909, 2.50000000e-06, 1.40000000e-07, 1.00000000e-07
910, 3.00000000e-06, 1.40000000e-07, 1.00000000e-07
911, 0.00000000e+00, 1.45000000e-07, 1.00000000e-07
912, 5.00000000e-07, 1.45000000e-07, 1.00000000e-07
913, 1.00000000e-06, 1.45000000e-07, 1.00000000e-07
914, 1.50000000e-06, 1.45000000e-07, 1.00000000e-07
915, 2.00000000e-06, 1.45000000e-07, 1.00000000e-07
916, 2.50000000e-06, 1.45000000e-07, 1.00000000e-07
917, 3.00000000e-06, 1.45000000e-07, 1.00000000e-07
918, 0.00000000e+00, 1.50000000e-07, 1.00000000e-07
919, 5.00000000e-07, 1.50000000e-07, 1.00000000e-07
920, 1.00000000e-06, 1.50000000e-07, 1.00000000e-07
921, 1.50000000e-06, 1.50000000e-07, 1.00000000e-07
922, 2.00000000e-06, 1.50000000e-07, 1.00000000e-07
923, 2.50000000e-06, 1.50000000e-07, 1.00000000e-07
924, 3.00000000e-06, 1.50000000e-07, 1.00000000e-07
925, 0.00000000e+00, 1.55000000e-07, 1.00000000e-07
926, 5.00000000e-07, 1.55000000e-07, 1.00000000e-07
927, 1.00000000e-06, 1.55000000e-07, 1.00000000e-07
928, 1.50000000e-06, 1.55000000e-07, 1.00000000e-07
929, 2.00000000e-06, 1.55000000e-07, 1.00000000e-07
930, 2.50000000e-06, 1.55000000e-07, 1.00000000e-07
931, 3.00000000e-06, 1.55000000e-07, 1.00000000e-07
932, 0.00000000e+00, 1.60000000e-07, 1.00000000e-07
933, 5.00000000e-07, 1.60000000e-07, 1.00000000e-07
934, 1.00000000e-06, 1.60000000e-07, 1.00000000e-07
935, 1.50000000e-06, 1.60000000e-07, 1.00000000e-07
936, 2.00000000e-06, 1.60000000e-07, 1.00000000e-07
937, 2.50000000e-06, 1.60000000e-07, 1.00000000e-07
938, 3.00000000e-06, 1.60000000e-07, 1.00000000e-07
939, 0.00000000e+00, 1.65000000e-07, 1.00000000e-07
940, 5.00000000e-07, 1.65000000e-07, 1.00000000e-07
941, 1.00000000e-06, 1.65000000e-07, 1.00000000e-07
942, 1.50000000e-06, 1.65000000e-07, 1.00000000e-07
943, 2.00000000e-06, 1.65000000e-07, 1.00000000e-07
944, 2.50000000e-06, 1.65000000e-07, 1.00000000e-07
945, 3.00000000e-06, 1.65000000e-07, 1.00000000e-07
946, 0.00000000e+00, 1.70000000e-07, 1.00000000e-07
947, 5.00000000e-07, 1.70000000e-07, 1.00000000e-07
948, 1.00000000e-06, 1.70000000e-07, 1.00000000e-07
949, 1.50000000e-06, 1.70000000e-07, 1.00000000e-07
950, 2.00000000e-06, 1.70000000e-07, 1.00000000e-07
951, 2.50000000e-06, 1.70000000e-07, 1.00000000e-07
952, 3.00000000e-06, 1.70000000e-07, 1.00000000e-07
953, 0.00000000e+00, 1.75000000e-07, 1.00000000e-07
954, 5.00000000e-07, 1.75000000e-07, 1.00000000e-07
955, 1.00000000e-06, 1.75000000e-07, 1.00000000e-07
956, 1.50000000e-06, 1.75000000e-07, 1.00000000e-07
957, 2.00000000e-06, 1.75000000e-07, 1.00000000e-07
958, 2.50000000e-06, 1.75000000e-07, 1.00000000e-07
959, 3.00000000e-06, 1.75000000e-07, 1.00000000e-07
960, 0.00000000e+00, 1.80000000e-07, 1.00000000e-07
961, 5.00000000e-07, 1.80000000e-07, 1.00000000e-07
962, 1.00000000e-06, 1.80000000e-07, 1.00000000e-07
963, 1.50000000e-06, 1.80000000e-07, 1.00000000e-07
964, 2.00000000e-06, 1.80000000e-07, 1.00000000e-07
965, 2.50000000e-06, 1.80000000e-07, 1.00000000e-07
966, 3.00000000e-06, 1.80000000e-07, 1.00000000e-07
967, 0.00000000e+00, 1.85000000e-07, 1.00000000e-07
968, 5.00000000e-07, 1.85000000e-07, 1.00000000e-07
969, 1.00000000e-06, 1.85000000e-07, 1.00000000e-07
970, 1.50000000e-06, 1.85000000e-07, 1.00000000e-07
971, 2.00000000e-06, 1.85000000e-07, 1.00000000e-07
972, 2.50000000e-06, 1.85000000e-07, 1.00000000e-07
973, 3.00000000e-06, 1.85000000e-07, 1.00000000e-07
974, 0.00000000e+00, 1.90000000e-07, 1.00000000e-07
975, 5.00000000e-07, 1.90000000e-07, 1.00000000e-07
976, 1.00000000e-06, 1.90000000e-07, 1.00000000e-07
977, 1.50000000e-06, 1.90000000e-07, 1.00000000e-07
978, 2.00000000e-06, 1.90000000e-07, 1.00000000e-07
979, 2.50000000e-06, 1.90000000e-07, 1.00000000e-07
980, 3.00000000e-06, 1.90000000e-07, 1.00000000e-07
981, 0.00000000e+00, 1.95000000e-07, 1.00000000e-07
982, 5.00000000e-07, 1.95000000e-07, 1.00000000e-07
983, 1.00000000e-06, 1.95000000e-07, 1.00000000e-07
984, 1.50000000e-06, 1.95000000e-07, 1.00000000e-07
985, 2.00000000e-06, 1.95000000e-07, 1.00000000e-07
986, 2.50000000e-06, 1.95000000e-07, 1.00000000e-07
987, 3.00000000e-06, 1.95000000e-07, 1.00000000e-07
988, 0.00000000e+00, 2.00000000e-07, 1.00000000e-07
989, 5.00000000e-07, 2.00000000e-07, 1.00000000e-07
990, 1.00000000e-06, 2.00000000e-07, 1.00000000e-07
991, 1.50000000e-06, 2.00000000e-07, 1.00000000e-07
992, 2.00000000e-06, 2.00000000e-07, 1.00000000e-07
993, 2.50000000e-06, 2.00000000e-07, 1.00000000e-07
994, 3.00000000e-06, 2.00000000e-07, 1.00000000e-07
995, 0.00000000e+00, 2.05000000e-07, 1.00000000e-07
996, 5.00000000e-07, 2.05000000e-07, 1.00000000e-07
997, 1.00000000e-06, 2.05000000e-07, 1.00000000e-07
998, 1.50000000e-06, 2.05000000e-07, 1.00000000e-07
999, 2.00000000e-06, 2.05000000e-07, 1.00000000e-07
1000, 2.50000000e-06, 2.05000000e-07, 1.00000000e-07
1001, 3.00000000e-06, 2.05000000e-07, 1.00000000e-07
1002, 0.00000000e+00, 2.10000000e-07, 1.00000000e-07
1003, 5.00000000e-07, 2.10000000e-07, 1.00000000e-07
1004, 1.00000000e-06, 2.10000000e-07, 1.00000000e-07
1005, 1.50000000e-06, 2.10000000e-07, 1.00000000e-07
1006, 2.00000000e-06, 2.10000000e-07, 1.00000000e-07
1007, 2.50000000e-06, 2.10000000e-07, 1.00000000e-07
1008, 3.00000000e-06, 2.10000000e-07, 1.00000000e-07
1009, 0.00000000e+00, 2.15000000e-07, 1.00000000e-07
1010, 5.00000000e-07, 2.15000000e-07, 1.00000000e-07
1011, 1.00000000e-06, 2.15000000e-07, 1.00000000e-07
1012, 1.50000000e-06, 2.15000000e-07, 1.00000000e-07
1013, 2.00000000e-06, 2.15000000e-07, 1.00000000e-07
1014, 2.50000000e-06, 2.15000000e-07, 1.00000000e-07
1015, 3.00000000e-06, 2.15000000e-07, 1.00000000e-07
1016, 0.00000000e+00, 2.20000000e-07, 1.00000000e-07
1017, 5.00000000e-07, 2.20000000e-07, 1.00000000e-07
1018, 1.00000000e-06, 2.20000000e-07, 1.00000000e-07
1019, 1.50000000e-06, 2.20000000e-07, 1.00000000e-07
1020, 2.00000000e-06, 2.20000000e-07, 1.00000000e-07
1021, 2.50000000e-06, 2.20000000e-07, 1.00000000e-07
1022, 3.00000000e-06, 2.20000000e-07, 1.00000000e-07
1023, 0.00000000e+00, 2.25000000e-07, 1.00000000e-07
1024, 5.00000000e-07, 2.25000000e-07, 1.00000000e-07
1025, 1.00000000e-06, 2.25000000e-07, 1.00000000e-07
1026, 1.50000000e-06, 2.25000000e-07, 1.00000000e-07
1027, 2.00000000e-06, 2.25000000e-07, 1.00000000e-07
1028, 2.50000000e-06, 2.25000000e-07, 1.00000000e-07
1029, 3.00000000e-06, 2.25000000e-07, 1.00000000e-07
1030, 0.00000000e+00, 2.30000000e-07, 1.00000000e-07
1031, 5.00000000e-07, 2.30000000e-07, 1.00000000e-07
1032, 1.00000000e-06, 2.30000000e-07, 1.00000000e-07
1033, 1.50000000e-06, 2.30000000e-07, 1.00000000e-07
1034, 2.00000000e-06, 2.30000000e-07, 1.00000000e-07
1035, 2.50000000e-06, 2.30000000e-07, 1.00000000e-07
1036, 3.00000000e-06, 2.30000000e-07, 1.00000000e-07
1037, 0.00000000e+00, 2.35000000e-07, 1.00000000e-07
1038, 5.00000000e-07, 2.35000000e-07, 1.00000000e-07
1039, 1.00000000e-06, 2.35000000e-07, 1.00000000e-07
1040, 1.50000000e-06, 2.35000000e-07, 1.00000000e-07
1041, 2.00000000e-06, 2.35000000e-07, 1.00000000e-07
1042, 2.50000000e-06, 2.35000000e-07, 1.00000000e-07
1043, 3.00000000e-06, 2.35000000e-07, 1.00000000e-07
1044, 0.00000000e+00, 2.40000000e-07, 1.00000000e-07
1045, 5.00000000e-07, 2.40000000e-07, 1.00000000e-07
1046, 1.00000000e-06, 2.40000000e-07, 1.00000000e-07
1047, 1.50000000e-06, 2.40000000e-07, 1.00000000e-07
1048, 2.00000000e-06, 2.40000000e-07, 1.00000000e-07
1049, 2.50000000e-06, 2.40000000e-07, 1.00000000e-07
1050, 3.00000000e-06, 2.40000000e-07, 1.00000000e-07
1051, 0.00000000e+00, 2.45000000e-07, 1.00000000e-07
1052, 5.00000000e-07, 2.45000000e-07, 1.00000000e-07
1053, 1.00000000e-06, 2.45000000e-07, 1.00000000e-07
1054, 1.50000000e-06, 2.45000000e-07, 1.00000000e-07
1055, 2.00000000e-06, 2.45000000e-07, 1.00000000e-07
1056, 2.50000000e-06, 2.45000000e-07, 1.00000000e-07
1057, 3.00000000e-06, 2.45000000e-07, 1.00000000e-07
1058, 0.00000000e+00, 2.50000000e-07, 1.00000000e-07
1059, 5.00000000e-07, 2.50000000e-07, 1.00000000e-07
1060, 1.00000000e-06, 2.50000000e-07, 1.00000000e-07
1061, 1.50000000e-06, 2.50000000e-07, 1.00000000e-07
1062, 2.00000000e-06, 2.50000000e-07, 1.00000000e-07
1063, 2.50000000e-06, 2.50000000e-07, 1.00000000e-07
1064, 3.00000000e-06, 2.50000000e-07, 1.00000000e-07
1065, 0.00000000e+00, 2.55000000e-07, 1.00000000e-07
1066, 5.00000000e-07, 2.55000000e-07, 1.00000000e-07
1067, 1.00000000e-06, 2.55000000e-07, 1.00000000e-07
1068, 1.50000000e-06, 2.55000000e-07, 1.00000000e-07
1069, 2.00000000e-06, 2.55000000e-07, 1.00000000e-07
1070, 2.50000000e-06, 2.55000000e-07, 1.00000000e-07
1071, 3.00000000e-06, 2.55000000e-07, 1.00000000e-07
1072, 0.00000000e+00, 2.60000000e-07, 1.00000000e-07
1073, 5.00000000e-07, 2.60000000e-07, 1.00000000e-07
1074, 1.00000000e-06, 2.60000000e-07, 1.00000000e-07
1075, 1.50000000e-06, 2.60000000e-07, 1.00000000e-07
1076, 2.00000000e-06, 2.60000000e-07, 1.00000000e-07
1077, 2.50000000e-06, 2.60000000e-07, 1.00000000e-07
1078, 3.00000000e-06, 2.60000000e-07, 1.00000000e-07
1079, 0.00000000e+00, 2.65000000e-07, 1.00000000e-07
1080, 5.00000000e-07, 2.65000000e-07, 1.00000000e-07
1081, 1.00000000e-06, 2.65000000e-07, 1.00000000e-07
1082, 1.50000000e-06, 2.65000000e-07, 1.00000000e-07
1083, 2.00000000e-06, 2.65000000e-07, 1.00000000e-07
1084, 2.50000000e-06, 2.65000000e-07, 1.00000000e-07
1085, 3.00000000e-06, 2.65000000e-07, 1.00000000e-07
1086, 0.00000000e+00, 2.70000000e-07, 1.00000000e-07
1087, 5.00000000e-07, 2.70000000e-07, 1.00000000e-07
1088, 1.00000000e-06, 2.70000000e-07, 1.00000000e-07
1089, 1.50000000e-06, 2.70000000e-07, 1.00000000e-07
1090, 2.00000000e-06, 2.70000000e-07, 1.00000000e-07
1091, 2.50000000e-06, 2.70000000e-07, 1.00000000e-07
1092, 3.00000000e-06, 2.70000000e-07, 1.00000000e-07
1093, 0.00000000e+00, 2.75000000e-07, 1.00000000e-07
1094, 5.00000000e-07, 2.75000000e-07, 1.00000000e-07
1095, 1.00000000e-06, 2.75000000e-07, 1.00000000e-07
1096, 1.50000000e-06, 2.75000000e-07, 1.00000000e-07
1097, 2.00000000e-06, 2.75000000e-07, 1.00000000e-07
1098, 2.50000000e-06, 2.75000000e-07, 1.00000000e-07
1099, 3.00000000e-06, 2.75000000e-07, 1.00000000e-07
1100, 0.00000000e+00, 2.80000000e-07, 1.00000000e-07
1101, 5.00000000e-07, 2.80000000e-07, 1.00000000e-07
1102, 1.00000000e-06, 2.80000000e-07, 1.00000000e-07
1103, 1.50000000e-06, 2.80000000e-07, 1.00000000e-07
1104, 2.00000000e-06, 2.80000000e-07, 1.00000000e-07
1105, 2.50000000e-06, 2.80000000e-07, 1.00000000e-07
1106, 3.00000000e-06, 2.80000000e-07, 1.00000000e-07
1107, 0.00000000e+00, 2.85000000e-07, 1.00000000e-07
1108, 5.00000000e-07, 2.85000000e-07, 1.00000000e-07
1109, 1.00000000e-06, 2.85000000e-07, 1.00000000e-07
1110, 1.50000000e-06, 2.85000000e-07, 1.00000000e-07
1111, 2.00000000e-06, 2.85000000e-07, 1.00000000e-07
1112, 2.50000000e-06, 2.85000000e-07, 1.00000000e-07
1113, 3.00000000e-06, 2.85000000e-07, 1.00000000e-07
1114, 0.00000000e+00, 2.90000000e-07, 1.00000000e-07
1115, 5.00000000e-07, 2.90000000e-07, 1.00000000e-07
1116, 1.00000000e-06, 2.90000000e-07, 1.00000000e-07
1117, 1.50000000e-06, 2.90000000e-07, 1.00000000e-07
1118, 2.00000000e-06, 2.90000000e-07, 1.00000000e-07
1119, 2.50000000e-06, 2.90000000e-07, 1.00000000e-07
1120, 3.00000000e-06, 2.90000000e-07, 1.00000000e-07
1121, 0.00000000e+00, 2.95000000e-07, 1.00000000e-07
1122, 5.00000000e-07, 2.95000000e-07, 1.00000000e-07
1123, 1.00000000e-06, 2.95000000e-07, 1.00000000e-07
1124, 1.50000000e-06, 2.95000000e-07, 1.00000000e-07
1125, 2.00000000e-06, 2.95000000e-07, 1.00000000e-07
1126, 2.50000000e-06, 2.95000000e-07, 1.00000000e-07
1127, 3.00000000e-06, 2.95000000e-07, 1.00000000e-07
1128, 0.00000000e+00, 3.00000000e-07, 1.00000000e-07
1129, 5.00000000e-07, 3.00000000e-07, 1.00000000e-07
1130, 1.00000000e-06, 3.00000000e-07, 1.00000000e-07
1131, 1.50000000e-06, 3.00000000e-07, 1.00000000e-07
1132, 2.00000000e-06, 3.00000000e-07, 1.00000000e-07
1133, 2.50000000e-06, 3.00000000e-07, 1.00000000e-07
1134, 3.00000000e-06, 3.00000000e-07, 1.00000000e-07
1135, 0.00000000e+00, 3.05000000e-07, 1.00000000e-07
1136, 5.00000000e-07, 3.05000000e-07, 1.00000000e-07
1137, 1.00000000e-06, 3.05000000e-07, 1.00000000e-07
1138, 1.50000000e-06, 3.05000000e-07, 1.00000000e-07
1139, 2.00000000e-06, 3.05000000e-07, 1.00000000e-07
1140, 2.50000000e-06, 3.05000000e-07, 1.00000000e-07
1141, 3.00000000e-06, 3.05000000e-07, 1.00000000e-07
1142, 0.00000000e+00, 3.10000000e-07, 1.00000000e-07
1143, 5.00000000e-07, 3.10000000e-07, 1.00000000e-07
1144, 1.00000000e-06, 3.10000000e-07, 1.00000000e-07
1145, 1.50000000e-06, 3.10000000e-07, 1.00000000e-07
1146, 2.00000000e-06, 3.10000000e-07, 1.00000000e-07
1147, 2.50000000e-06, 3.10000000e-07, 1.00000000e-07
1148, 3.00000000e-06, 3.10000000e-07, 1.00000000e-07
1149, 0.00000000e+00, 3.15000000e-07, 1.00000000e-07
1150, 5.00000000e-07, 3.15000000e-07, 1.00000000e-07
1151, 1.00000000e-06, 3.15000000e-07, 1.00000000e-07
1152, 1.50000000e-06, 3.15000000e-07, 1.00000000e-07
1153, 2.00000000e-06, 3.15000000e-07, 1.00000000e-07
1154, 2.50000000e-06, 3.15000000e-07, 1.00000000e-07
1155, 3.00000000e-06, 3.15000000e-07, 1.00000000e-07
1156, 0.00000000e+00, 3.20000000e-07, 1.00000000e-07
1157, 5.00000000e-07, 3.20000000e-07, 1.00000000e-07
1158, 1.00000000e-06, 3.20000000e-07, 1.00000000e-07
1159, 1.50000000e-06, 3.20000000e-07, 1.00000000e-07
1160, 2.00000000e-06, 3.20000000e-07, 1.00000000e-07
1161, 2.50000000e-06, 3.20000000e-07, 1.00000000e-07
1162, 3.00000000e-06, 3.20000000e-07, 1.00000000e-07
1163, 0.00000000e+00, 3.25000000e-07, 1.00000000e-07
1164, 5.00000000e-07, 3.25000000e-07, 1.00000000e-07
1165, 1.00000000e-06, 3.25000000e-07, 1.00000000e-07
1166, 1.50000000e-06, 3.25000000e-07, 1.00000000e-07
1167, 2.00000000e-06, 3.25000000e-07, 1.00000000e-07
1168, 2.50000000e-06, 3.25000000e-07, 1.00000000e-07
1169, 3.00000000e-06, 3.25000000e-07, 1.00000000e-07
1170, 0.00000000e+00, 3.30000000e-07, 1.00000000e-07
1171, 5.00000000e-07, 3.30000000e-07, 1.00000000e-07
1172, 1.00000000e-06, 3.30000000e-07, 1.00000000e-07
1173, 1.50000000e-06, 3.30000000e-07, 1.00000000e-07
1174, 2.00000000e-06, 3.30000000e-07, 1.00000000e-07
1175, 2.50000000e-06, 3.30000000e-07, 1.00000000e-07
1176, 3.00000000e-06, 3.30000000e-07, 1.00000000e-07
1177, 0.00000000e+00, 3.35000000e-07, 1.00000000e-07
1178, 5.00000000e-07, 3.35000000e-07, 1.00000000e-07
1179, 1.00000000e-06, 3.35000000e-07, 1.00000000e-07
1180, 1.50000000e-06, 3.35000000e-07, 1.00000000e-07
1181, 2.00000000e-06, 3.35000000e-07, 1.00000000e-07
1182, 2.50000000e-06, 3.35000000e-07, 1.00000000e-07
1183, 3.00000000e-06, 3.35000000e-07, 1.00000000e-07
1184, 0.00000000e+00, 3.40000000e-07, 1.00000000e-07
1185, 5.00000000e-07, 3.40000000e-07, 1.00000000e-07
1186, 1.00000000e-06, 3.40000000e-07, 1.00000000e-07
1187, 1.50000000e-06, 3.40000000e-07, 1.00000000e-07
1188, 2.00000000e-06, 3.40000000e-07, 1.00000000e-07
1189, 2.50000000e-06, 3.40000000e-07, 1.00000000e-07
1190, 3.00000000e-06, 3.40000000e-07, 1.00000000e-07
1191, 0.00000000e+00, 3.45000000e-07, 1.00000000e-07
1192, 5.00000000e-07, 3.45000000e-07, 1.00000000e-07
1193, 1.00000000e-06, 3.45000000e-07, 1.00000000e-07
1194, 1.50000000e-06, 3.45000000e-07, 1.00000000e-07
1195, 2.00000000e-06, 3.45000000e-07, 1.00000000e-07
1196, 2.50000000e-06, 3.45000000e-07, 1.00000000e-07
1197, 3.00000000e-06, 3.45000000e-07, 1.00000000e-07
1198, 0.00000000e+00, 3.50000000e-07, 1.00000000e-07
1199, 5.00000000e-07, 3.50000000e-07, 1.00000000e-07
1200, 1.00000000e-06, 3.50000000e-07, 1.00000000e-07
1201, 1.50000000e-06, 3.50000000e-07, 1.00000000e-07
1202, 2.00000000e-06, 3.50000000e-07, 1.00000000e-07
1203, 2.50000000e-06, 3.50000000e-07, 1.00000000e-07
1204, 3.00000000e-06, 3.50000000e-07, 1.00000000e-07
1205, 0.00000000e+00, 3.55000000e-07, 1.00000000e-07
1206, 5.00000000e-07, 3.55000000e-07, 1.00000000e-07
1207, 1.00000000e-06, 3.55000000e-07, 1.00000000e-07
1208, 1.50000000e-06, 3.55000000e-07, 1.00000000e-07
1209, 2.00000000e-06, 3.55000000e-07, 1.00000000e-07
1210, 2.50000000e-06, 3.55000000e-07, 1.00000000e-07
1211, 3.00000000e-06, 3.55000000e-07, 1.00000000e-07
1212, 0.00000000e+00, 3.60000000e-07, 1.00000000e-07
1213, 5.00000000e-07, 3.60000000e-07, 1.00000000e-07
1214, 1.00000000e-06, 3.60000000e-07, 1.00000000e-07
1215, 1.50000000e-06, 3.60000000e-07, 1.00000000e-07
1216, 2.00000000e-06, 3.60000000e-07, 1.00000000e-07
1217, 2.50000000e-06, 3.60000000e-07, 1.00000000e-07
1218, 3.00000000e-06, 3.60000000e-07, 1.00000000e-07
1219, 0.00000000e+00, 3.65000000e-07, 1.00000000e-07
1220, 5.00000000e-07, 3.65000000e-07, 1.00000000e-07
1221, 1.00000000e-06, 3.65000000e-07, 1.00000000e-07
1222, 1.50000000e-06, 3.65000000e-07, 1.00000000e-07
1223, 2.00000000e-06, 3.65000000e-07, 1.00000000e-07
1224, 2.50000000e-06, 3.65000000e-07, 1.00000000e-07
1225, 3.00000000e-06, 3.65000000e-07, 1.00000000e-07
1226, 0.00000000e+00, 3.70000000e-07, 1.00000000e-07
1227, 5.00000000e-07, 3.70000000e-07, 1.00000000e-07
1228, 1.00000000e-06, 3.70000000e-07, 1.00000000e-07
1229, 1.50000000e-06, 3.70000000e-07, 1.00000000e-07
1230, 2.00000000e-06, 3.70000000e-07, 1.00000000e-07
1231, 2.50000000e-06, 3.70000000e-07, 1.00000000e-07
1232, 3.00000000e-06, 3.70000000e-07, 1.00000000e-07
1233, 0.00000000e+00, 3.75000000e-07, 1.00000000e-07
1234, 5.00000000e-07, 3.75000000e-07, 1.00000000e-07
1235, 1.00000000e-06, 3.75000000e-07, 1.00000000e-07
1236, 1.50000000e-06, 3.75000000e-07, 1.00000000e-07
1237, 2.00000000e-06, 3.75000000e-07, 1.00000000e-07
1238, 2.50000000e-06, 3.75000000e-07, 1.00000000e-07
1239, 3.00000000e-06, 3.75000000e-07, 1.00000000e-07
1240, 0.00000000e+00, 3.80000000e-07, 1.00000000e-07
1241, 5.00000000e-07, 3.80000000e-07, 1.00000000e-07
1242, 1.00000000e-06, 3.80000000e-07, 1.00000000e-07
1243, 1.50000000e-06, 3.80000000e-07, 1.00000000e-07
1244, 2.00000000e-06, 3.80000000e-07, 1.00000000e-07
1245, 2.50000000e-06, 3.80000000e-07, 1.00000000e-07
1246, 3.00000000e-06, 3.80000000e-07, 1.00000000e-07
1247, 0.00000000e+00, 3.85000000e-07, 1.00000000e-07
1248, 5.00000000e-07, 3.85000000e-07, 1.00000000e-07
1249, 1.00000000e-06, 3.85000000e-07, 1.00000000e-07
1250, 1.50000000e-06, 3.85000000e-07, 1.00000000e-07
1251, 2.00000000e-06, 3.85000000e-07, 1.00000000e-07
1252, 2.50000000e-06, 3.85000000e-07, 1.00000000e-07
1253, 3.00000000e-06, 3.85000000e-07, 1.00000000e-07
1254, 0.00000000e+00, 3.90000000e-07, 1.00000000e-07
1255, 5.00000000e-07, 3.90000000e-07, 1.00000000e-07
1256, 1.00000000e-06, 3.90000000e-07, 1.00000000e-07
1257, 1.50000000e-06, 3.90000000e-07, 1.00000000e-07
1258, 2.00000000e-06, 3.90000000e-07, 1.00000000e-07
1259, 2.50000000e-06, 3.90000000e-07, 1.00000000e-07
1260, 3.00000000e-06, 3.90000000e-07, 1.00000000e-07
1261, 0.00000000e+00, 3.95000000e-07, 1.00000000e-07
1262, 5.00000000e-07, 3.95000000e-07, 1.00000000e-07
1263, 1.00000000e-06, 3.95000000e-07, 1.00000000e-07
1264, 1.50000000e-06, 3.95000000e-07, 1.00000000e-07
1265, 2.00000000e-06, 3.95000000e-07, 1.00000000e-07
1266, 2.50000000e-06, 3.95000000e-07, 1.00000000e-07
1267, 3.00000000e-06, 3.95000000e-07, 1.00000000e-07
1268, 0.00000000e+00, 4.00000000e-07, 1.00000000e-07
1269, 5.00000000e-07, 4.00000000e-07, 1.00000000e-07
1270, 1.00000000e-06, 4.00000000e-07, 1.00000000e-07
1271, 1.50000000e-06, 4.00000000e-07, 1.00000000e-07
1272, 2.00000000e-06, 4.00000000e-07, 1.00000000e-07
1273, 2.50000000e-06, 4.00000000e-07, 1.00000000e-07
1274, 3.00000000e-06, 4.00000000e-07, 1.00000000e-07
1275, 0.00000000e+00, 4.05000000e-07, 1.00000000e-07
1276, 5.00000000e-07, 4.05000000e-07, 1.00000000e-07
1277, 1.00000000e-06, 4.05000000e-07, 1.00000000e-07
1278, 1.50000000e-06, 4.05000000e-07, 1.00000000e-07
1279, 2.00000000e-06, 4.05000000e-07, 1.00000000e-07
1280, 2.50000000e-06, 4.05000000e-07, 1.00000000e-07
1281, 3.00000000e-06, 4.05000000e-07, 1.00000000e-07
1282, 0.00000000e+00, 4.10000000e-07, 1.00000000e-07
1283, 5.00000000e-07, 4.10000000e-07, 1.00000000e-07
1284, 1.00000000e-06, 4.10000000e-07, 1.00000000e-07
1285, 1.50000000e-06, 4.10000000e-07, 1.00000000e-07
1286, 2.00000000e-06, 4.10000000e-07, 1.00000000e-07
1287, 2.50000000e-06, 4.10000000e-07, 1.00000000e-07
1288, 3.00000000e-06, 4.10000000e-07, 1.00000000e-07
1289, 0.00000000e+00, 4.15000000e-07, 1.00000000e-07
1290, 5.00000000e-07, 4.15000000e-07, 1.00000000e-07
1291, 1.00000000e-06, 4.15000000e-07, 1.00000000e-07
1292, 1.50000000e-06, 4.15000000e-07, 1.00000000e-07
1293, 2.00000000e-06, 4.15000000e-07, 1.00000000e-07
1294, 2.50000000e-06, 4.15000000e-07, 1.00000000e-07
1295, 3.00000000e-06, 4.15000000e-07, 1.00000000e-07
1296, 0.00000000e+00, 4.20000000e-07, 1.00000000e-07
1297, 5.00000000e-07, 4.20000000e-07, 1.00000000e-07
1298, 1.00000000e-06, 4.20000000e-07, 1.00000000e-07
1299, 1.50000000e-06, 4.20000000e-07, 1.00000000e-07
1300, 2.00000000e-06, 4.20000000e-07, 1.00000000e-07
1301, 2.50000000e-06, 4.20000000e-07, 1.00000000e-07
1302, 3.00000000e-06, 4.20000000e-07, 1.00000000e-07
1303, 0.00000000e+00, 4.25000000e-07, 1.00000000e-07
1304, 5.00000000e-07, 4.25000000e-07, 1.00000000e-07
1305, 1.00000000e-06, 4.25000000e-07, 1.00000000e-07
1306, 1.50000000e-06, 4.25000000e-07, 1.00000000e-07
1307, 2.00000000e-06, 4.25000000e-07, 1.00000000e-07
1308, 2.50000000e-06, 4.25000000e-07, 1.00000000e-07
1309, 3.00000000e-06, 4.25000000e-07, 1.00000000e-07
1310, 0.00000000e+00, 4.30000000e-07, 1.00000000e-07
1311, 5.00000000e-07, 4.30000000e-07, 1.00000000e-07
1312, 1.00000000e-06, 4.30000000e-07, 1.00000000e-07
1313, 1.50000000e-06, 4.30000000e-07, 1.00000000e-07
1314, 2.00000000e-06, 4.30000000e-07, 1.00000000e-07
1315, 2.50000000e-06, 4.30000000e-07, 1.00000000e-07
1316, 3.00000000e-06, 4.30000000e-07, 1.00000000e-07
1317, 0.00000000e+00, 4.35000000e-07, 1.00000000e-07
1318, 5.00000000e-07, 4.35000000e-07, 1.00000000e-07
1319, 1.00000000e-06, 4.35000000e-07, 1.00000000e-07
1320, 1.50000000e-06, 4.35000000e-07, 1.00000000e-07
1321, 2.00000000e-06, 4.35000000e-07, 1.00000000e-07
1322, 2.50000000e-06, 4.35000000e-07, 1.00000000e-07
1323, 3.00000000e-06, 4.35000000e-07, 1.00000000e-07
1324, 0.00000000e+00, 4.40000000e-07, 1.00000000e-07
1325, 5.00000000e-07, 4.40000000e-07, 1.00000000e-07
1326, 1.00000000e-06, 4.40000000e-07, 1.00000000e-07
1327, 1.50000000e-06, 4.40000000e-07, 1.00000000e-07
1328, 2.00000000e-06, 4.40000000e-07, 1.00000000e-07
1329, 2.50000000e-06, 4.40000000e-07, 1.00000000e-07
1330, 3.00000000e-06, 4.40000000e-07, 1.00000000e-07
1331, 0.00000000e+00, 4.45000000e-07, 1.00000000e-07
1332, 5.00000000e-07, 4.45000000e-07, 1.00000000e-07
1333, 1.00000000e-06, 4.45000000e-07, 1.00000000e-07
1334, 1.50000000e-06, 4.45000000e-07, 1.00000000e-07
1335, 2.00000000e-06, 4.45000000e-07, 1.00000000e-07
1336, 2.50000000e-06, 4.45000000e-07, 1.00000000e-07
1337, 3.00000000e-06, 4.45000000e-07, 1.00000000e-07
1338, 0.00000000e+00, 4.50000000e-07, 1.00000000e-07
1339, 5.00000000e-07, 4.50000000e-07, 1.00000000e-07
1340, 1.00000000e-06, 4.50000000e-07, 1.00000000e-07
1341, 1.50000000e-06, 4.50000000e-07, 1.00000000e-07
1342, 2.00000000e-06, 4.50000000e-07, 1.00000000e-07
1343, 2.50000000e-06, 4.50000000e-07, 1.00000000e-07
1344, 3.00000000e-06, 4.50000000e-07, 1.00000000e-07
1345, 0.00000000e+00, 4.55000000e-07, 1.00000000e-07
1346, 5.00000000e-07, 4.55000000e-07, 1.00000000e-07
1347, 1.00000000e-06, 4.55000000e-07, 1.00000000e-07
1348, 1.50000000e-06, 4.55000000e-07, 1.00000000e-07
1349, 2.00000000e-06, 4.55000000e-07, 1.00000000e-07
1350, 2.50000000e-06, 4.55000000e-07, 1.00000000e-07
1351, 3.00000000e-06, 4.55000000e-07, 1.00000000e-07
1352, 0.00000000e+00, 4.60000000e-07, 1.00000000e-07
1353, 5.00000000e-07, 4.60000000e-07, 1.00000000e-07
1354, 1.00000000e-06, 4.60000000e-07, 1.00000000e-07
1355, 1.50000000e-06, 4.60000000e-07, 1.00000000e-07
1356, 2.00000000e-06, 4.60000000e-07, 1.00000000e-07
1357, 2.50000000e-06, 4.60000000e-07, 1.00000000e-07
1358, 3.00000000e-06, 4.60000000e-07, 1.00000000e-07
1359, 0.00000000e+00, 4.65000000e-07, 1.00000000e-07
1360, 5.00000000e-07, 4.65000000e-07, 1.00000000e-07
1361, 1.00000000e-06, 4.65000000e-07, 1.00000000e-07
1362, 1.50000000e-06, 4.65000000e-07, 1.00000000e-07
1363, 2.00000000e-06, 4.65000000e-07, 1.00000000e-07
1364, 2.50000000e-06, 4.65000000e-07, 1.00000000e-07
1365, 3.00000000e-06, 4.65000000e-07, 1.00000000e-07
1366, 0.00000000e+00, 4.70000000e-07, 1.00000000e-07
1367, 5.00000000e-07, 4.70000000e-07, 1.00000000e-07
1368, 1.00000000e-06, 4.70000000e-07, 1.00000000e-07
1369, 1.50000000e-06, 4.70000000e-07, 1.00000000e-07
1370, 2.00000000e-06, 4.70000000e-07, 1.00000000e-07
1371, 2.50000000e-06, 4.70000000e-07, 1.00000000e-07
1372, 3.00000000e-06, 4.70000000e-07, 1.00000000e-07
1373, 0.00000000e+00, 4.75000000e-07, 1.00000000e-07
1374, 5.00000000e-07, 4.75000000e-07, 1.00000000e-07
1375, 1.00000000e-06, 4.75000000e-07, 1.00000000e-07
1376, 1.50000000e-06, 4.75000000e-07, 1.00000000e-07
1377, 2.00000000e-06, 4.75000000e-07, 1.00000000e-07
1378, 2.50000000e-06, 4.75000000e-07, 1.00000000e-07
1379, 3.00000000e-06, 4.75000000e-07, 1.00000000e-07
1380, 0.00000000e+00, 4.80000000e-07, 1.00000000e-07
1381, 5.00000000e-07, 4.80000000e-07, 1.00000000e-07
1382, 1.00000000e-06, 4.80000000e-07, 1.00000000e-07
1383, 1.50000000e-06, 4.80000000e-07, 1.00000000e-07
1384, 2.00000000e-06, 4.80000000e-07, 1.00000000e-07
1385, 2.50000000e-06, 4.80000000e-07, 1.00000000e-07
1386, 3.00000000e-06, 4.80000000e-07, 1.00000000e-07
1387, 0.00000000e+00, 4.85000000e-07, 1.00000000e-07
1388, 5.00000000e-07, 4.85000000e-07, 1.00000000e-07
1389, 1.00000000e-06, 4.85000000e-07, 1.00000000e-07
1390, 1.50000000e-06, 4.85000000e-07, 1.00000000e-07
1391, 2.00000000e-06, 4.85000000e-07, 1.00000000e-07
1392, 2.50000000e-06, 4.85000000e-07, 1.00000000e-07
1393, 3.00000000e-06, 4.85000000e-07, 1.00000000e-07
1394, 0.00000000e+00, 4.90000000e-07, 1.00000000e-07
1395, 5.00000000e-07, 4.90000000e-07, 1.00000000e-07
1396, 1.00000000e-06, 4.90000000e-07, 1.00000000e-07
1397, 1.50000000e-06, 4.90000000e-07, 1.00000000e-07
1398, 2.00000000e-06, 4.90000000e-07, 1.00000000e-07
1399, 2.50000000e-06, 4.90000000e-07, 1.00000000e-07
1400, 3.00000000e-06, 4.90000000e-07, 1.00000000e-07
1401, 0.00000000e+00, 4.95000000e-07, 1.00000000e-07
1402, 5.00000000e-07, 4.95000000e-07, 1.00000000e-07
1403, 1.00000000e-06, 4.95000000e-07, 1.00000000e-07
1404, 1.50000000e-06, 4.95000000e-07, 1.00000000e-07
1405, 2.00000000e-06, 4.95000000e-07, 1.00000000e-07
1406, 2.50000000e-06, 4.95000000e-07, 1.00000000e-07
1407, 3.00000000e-06, 4.95000000e-07, 1.00000000e-07
1408, 0.00000000e+00, 5.00000000e-07, 1.00000000e-07
1409, 5.00000000e-07, 5.00000000e-07, 1.00000000e-07
1410, 1.00000000e-06, 5.00000000e-07, 1.00000000e-07
1411, 1.50000000e-06, 5.00000000e-07, 1.00000000e-07
1412, 2.00000000e-06, 5.00000000e-07, 1.00000000e-07
1413, 2.50000000e-06, 5.00000000e-07, 1.00000000e-07
1414, 3.00000000e-06, 5.00000000e-07, 1.00000000e-07
*ELEMENT, TYPE=U1, ELSET=ESI
1, 1, 2, 9, 8, 708, 709, 716, 715
2, 2, 3, 10, 9, 709, 710, 717, 716
3, 3, 4, 11, 10, 710, 711, 718, 717
4, 4, 5, 12, 11, 711, 712, 719, 718
5, 5, 6, 13, 12, 712, 713, 720, 719
6, 6, 7, 14, 13, 713, 714, 721, 720
7, 8, 9, 16, 15, 715, 716, 723, 722
8, 9, 10, 17, 16, 716, 717, 724, 723
9, 10, 11, 18, 17, 717, 718, 725, 724
10, 11, 12, 19, 18, 718, 719, 726, 725
11, 12, 13, 20, 19, 719, 720, 727, 726
12, 13, 14, 21, 20, 720, 721, 728, 727
13, 15, 16, 23, 22, 722, 723, 730, 729
14, 16, 17, 24, 23, 723, 724, 731, 730
15, 17, 18, 25, 24, 724, 725, 732, 731
16, 18, 19, 26, 25, 725, 726, 733, 732
17, 19, 20, 27, 26, 726, 727, 734, 733
18, 20, 21, 28, 27, 727, 728, 735, 734
19, 22, 23, 30, 29, 729, 730, 737, 736
20, 23, 24, 31, 30, 730, 731, 738, 737
21, 24, 25, 32, 31, 731, 732, 739, 738
22, 25, 26, 33, 32, 732, 733, 740, 739
23, 26, 27, 34, 33, 733, 734, 741, 740
24, 27, 28, 35, 34, 734, 735, 742, 741
25, 29, 30, 37, 36, 736, 737, 744, 743
26, 30, 31, 38, 37, 737, 738, 745, 744
27, 31, 32, 39, 38, 738, 739, 746, 745
28, 32, 33, 40, 39, 739, 740, 747, 746
29, 33, 34, 41, 40, 740, 741, 748, 747
30, 34, 35, 42, 41, 741, 742, 749, 748
31, 36, 37, 44, 43, 743, 744, 751, 750
32, 37, 38, 45, 44, 744, 745, 752, 751
33, 38, 39, 46, 45, 745, 746, 753, 752
34, 39, 40, 47, 46, 746, 747, 754, 753
35, 40, 41, 48, 47, 747, 748, 755, 754
36, 41, 42, 49, 48, 748, 749, 756, 755
37, 43, 44, 51, 50, 750, 751, 758, 757
38, 44, 45, 52, 51, 751, 752, 759, 758
39, 45, 46, 53, 52, 752, 753, 760, 759
40, 46, 47, 54, 53, 753, 754, 761, 760
41, 47, 48, 55, 54, 754, 755, 762, 761
42, 48, 49, 56, 55, 755, 756, 763, 762
43, 50, 51, 58, 57, 757, 758, 765, 764
44, 51, 52, 59, 58, 758, 759, 766, 765
45, 52, 53, 60, 59, 759, 760, 767, 766
46, 53, 54, 61, 60, 760, 761, 768, 767
47, 54, 55, 62, 61, 761, 762, 769, 768
48, 55, 56, 63, 62, 762, 763, 770, 769
49, 57, 58, 65, 64, 764, 765, 772, 771
50, 58, 59, 66, 65, 765, 766, 773, 772
51, 59, 60, 67, 66, 766, 767, 774, 773
52, 60, 61, 68, 67, 767, 768, 775, 774
53, 61, 62, 69, 68, 768, 769, 776, 775
54, 62, 63, 70, 69, 769, 770, 777, 776
55, 64, 65, 72, 71, 771, 772, 779, 778
56, 65, 66, 73, 72, 772, 773, 780, 779
57, 66, 67, 74, 73, 773, 774, 781, 780
58, 67, 68, 75, 74, 774, 775, 782, 781
59, 68, 69, 76, 75, 775, 776, 783, 782
60, 69, 70, 77, 76, 776, 777, 784, 783
61, 71, 72, 79, 78, 778, 779, 786, 785
62, 72, 73, 80, 79, 779, 780, 787, 786
63, 73, 74, 81, 80, 780, 781, 788, 787
64, 74, 75, 82, 81, 781, 782, 789, 788
65, 75, 76, 83, 82, 782, 783, 790, 789
66, 76, 77, 84, 83, 783, 784, 791, 790
67, 78, 79, 86, 85, 785, 786, 793, 792
68, 79, 80, 87, 86, 786, 787, 794, 793
69, 80, 81, 88, 87, 787, 788, 795, 794
70, 81, 82, 89, 88, 788, 789, 796, 795
71, 82, 83, 90, 89, 789, 790, 797, 796
72, 83, 84, 91, 90, 790, 791, 798, 797
73, 85, 86, 93, 92, 792, 793, 800, 799
74, 86, 87, 94, 93, 793, 794, 801, 800
75, 87, 88, 95, 94, 794, 795, 802, 801
76, 88, 89, 96, 95, 795, 796, 803, 802
77, 89, 90, 97, 96, 796, 797, 804, 803
78, 90, 91, 98, 97, 797, 798, 805, 804
79, 92, 93, 100, 99, 799, 800, 807, 806
80, 93, 94, 101, 100, 800, 801, 808, 807
81, 94, 95, 102, 101, 801, 802, 809, 808
82, 95, 96, 103, 102, 802, 803, 810, 809
83, 96, 97, 104, 103, 803, 804, 811, 810
84, 97, 98, 105, 104, 804, 805, 812, 811
85, 99, 100, 107, 106, 806, 807, 814, 813
86, 100, 101, 108, 107, 807, 808, 815, 814
87, 101, 102, 109, 108, 808, 809, 816, 815
88, 102, 103, 110, 109, 809, 810, 817, 816
89, 103, 104, 111, 110, 810, 811, 818, 817
90, 104, 105, 112, 111, 811, 812, 819, 818
91, 106, 107, 114, 113, 813, 814, 821, 820
92, 107, 108, 115, 114, 814, 815, 822, 821
93, 108, 109, 116, 115, 815, 816, 823, 822
94, 109, 110, 117, 116, 816, 817, 824, 823
95, 110, 111, 118, 117, 817, 818, 825, 824
96, 111, 112, 119, 118, 818, 819, 826, 825
97, 113, 114, 121, 120, 820, 821, 828, 827
98, 114, 115, 122, 121, 821, 822, 829, 828
99, 115, 116, 123, 122, 822, 823, 830, 829
100, 116, 117, 124, 123, 823, 824, 831, 830
101, 117, 118, 125, 124, 824, 825, 832, 831
102, 118, 119, 126, 125, 825, 826, 833, 832
103, 120, 121, 128, 127, 827, 828, 835, 834
104, 121, 122, 129, 128, 828, 829, 836, 835
105, 122, 123, 130, 129, 829, 830, 837, 836
106, 123, 124, 131, 130, 830, 831, 838, 837
107, 124, 125, 132, 131, 831, 832, 839, 838
108, 125, 126, 133, 132, 832, 833, 840, 839
109, 127, 128, 135, 134, 834, 835, 842, 841
110, 128, 129, 136, 135, 835, 836, 843, 842
111, 129, 130, 137, 136, 836, 837, 844, 843
112, 130, 131, 138, 137, 837, 838, 845, 844
113, 131, 132, 139, 138, 838, 839, 846, 845
114, 132, 133, 140, 139, 839, 840, 847, 846
115, 134, 135, 142, 141, 841, 842, 849, 848
116, 135, 136, 143, 142, 842, 843, 850, 849
117, 136, 137, 144, 143, 843, 844, 851, 850
118, 137, 138, 145, 144, 844, 845, 852, 851
119, 138, 139, 146, 145, 845, 846, 853, 852
120, 139, 140, 147, 146, 846, 847, 854, 853
121, 141, 142, 149, 148, 848, 849, 856, 855
122, 142, 143, 150, 149, 849, 850, 857, 856
123, 143, 144, 151, 150, 850, 851, 858, 857
124, 144, 145, 152, 151, 851, 852, 859, 858
125, 145, 146, 153, 152, 852, 853, 860, 859
126, 146, 147, 154, 153, 853, 854, 861, 860
127, 148, 149, 156, 155, 855, 856, 863, 862
128, 149, 150, 157, 156, 856, 857, 864, 863
129, 150, 151, 158, 157, 857, 858, 865, 864
130, 151, 152, 159, 158, 858, 859, 866, 865
131, 152, 153, 160, 159, 859, 860, 867, 866
132, 153, 154, 161, 160, 860, 861, 868, 867
133, 155, 156, 163, 162, 862, 863, 870, 869
134, 156, 157, 164, 163, 863, 864, 871, 870
135, 157, 158, 165, 164, 864, 865, 872, 871
136, 158, 159, 166, 165, 865, 866, 873, 872
137, 159, 160, 167, 166, 866, 867, 874, 873
138, 160, 161, 168, 167, 867, 868, 875, 874
139, 162, 163, 170, 169, 869, 870, 877, 876
140, 163, 164, 171, 170, 870, 871, 878, 877
141, 164, 165, 172, 171, 871, 872, 879, 878
142, 165, 166, 173, 172, 872, 873, 880, 879
143, 166, 167, 174, 173, 873, 874, 881, 880
144, 167, 168, 175, 174, 874, 875, 882, 881
145, 169, 170, 177, 176, 876, 877, 884, 883
146, 170, 171, 178, 177, 877, 878, 885, 884
147, 171, 172, 179, 178, 878, 879, 886, 885
148, 172, 173, 180, 179, 879, 880, 887, 886
149, 173, 174, 181, 180, 880, 881, 888, 887
150, 174, 175, 182, 181, 881, 882, 889, 888
151, 176, 177, 184, 183, 883, 884, 891, 890
152, 177, 178, 185, 184, 884, 885, 892, 891
153, 178, 179, 186, 185, 885, 886, 893, 892
154, 179, 180, 187, 186, 886, 887, 894, 893
155, 180, 181, 188, 187, 887, 888, 895, 894
156, 181, 182, 189, 188, 888, 889, 896, 895
157, 183, 184, 191, 190, 890, 891, 898, 897
158, 184, 185, 192, 191, 891, 892, 899, 898
159, 185, 186, 193, 192, 892, 893, 900, 899
160, 186, 187, 194, 193, 893, 894, 901, 900
161, 187, 188, 195, 194, 894, 895, 902, 901
162, 188, 189, 196, 195, 895, 896, 903, 902
163, 190, 191, 198, 197, 897, 898, 905, 904
164, 191, 192, 199, 198, 898, 899, 906, 905
165, 192, 193, 200, 199, 899, 900, 907, 906
166, 193, 194, 201, 200, 900, 901, 908, 907
167, 194, 195, 202, 201, 901, 902, 909, 908
168, 195, 196, 203, 202, 902, 903, 910, 909
169, 197, 198, 205, 204, 904, 905, 912, 911
170, 198, 199, 206, 205, 905, 906, 913, 912
171, 199, 200, 207, 206, 906, 907, 914, 913
172, 200, 201, 208, 207, 907, 908, 915, 914
173, 201, 202, 209, 208, 908, 909, 916, 915
174, 202, 203, 210, 209, 909, 910, 917, 916
175, 204, 205, 212, 211, 911, 912, 919, 918
176, 205, 206, 213, 212, 912, 913, 920, 919
177, 206, 207, 214, 213, 913, 914, 921, 920
178, 207, 208, 215, 214, 914, 915, 922, 921
179, 208, 209, 216, 215, 915, 916, 923, 922
180, 209, 210, 217, 216, 916, 917, 924, 923
181, 211, 212, 219, 218, 918, 919, 926, 925
182, 212, 213, 220, 219, 919, 920, 927, 926
183, 213, 214, 221, 220, 920, 921, 928, 927
184, 214, 215, 222, 221, 921, 922, 929, 928
185, 215, 216, 223, 222, 922, 923, 930, 929
186, 216, 217, 224, 223, 923, 924, 931, 930
187, 218, 219, 226, 225, 925, 926, 933, 932
188, 219, 220, 227, 226, 926, 927, 934, 933
189, 220, 221, 228, 227, 927, 928, 935, 934
190, 221, 222, 229, 228, 928, 929, 936, 935
191, 222, 223, 230, 229, 929, 930, 937, 936
192, 223, 224, 231, 230, 930, 931, 938, 937
193, 225, 226, 233, 232, 932, 933, 940, 939
194, 226, 227, 234, 233, 933, 934, 941, 940
195, 227, 228, 235, 234, 934, 935, 942, 941
196, 228, 229, 236, 235, 935, 936, 943, 942
197, 229, 230, 237, 236, 936, 937, 944, 943
198, 230, 231, 238, 237, 937, 938, 945, 944
199, 232, 233, 240, 239, 939, 940, 947, 946
200, 233, 234, 241, 240, 940, 941, 948, 947
201, 234, 235, 242, 241, 941, 942, 949, 948
202, 235, 236, 243, 242, 942, 943, 950, 949
203, 236, 237, 244, 243, 943, 944, 951, 950
204, 237, 238, 245, 244, 944, 945, 952, 951
205, 239, 240, 247, 246, 946, 947, 954, 953
206, 240, 241, 248, 247, 947, 948, 955, 954
207, 241, 242, 249, 248, 948, 949, 956, 955
208, 242, 243, 250, 249, 949, 950, 957, 956
209, 243, 244, 251, 250, 950, 951, 958, 957
210, 244, 245, 252, 251, 951, 952, 959, 958
211, 246, 247, 254, 253, 953, 954, 961, 960
212, 247, 248, 255, 254, 954, 955, 962, 961
213, 248, 249, 256, 255, 955, 956, 963, 962
214, 249, 250, 257, 256, 956, 957, 964, 963
215, 250, 251, 258, 257, 957, 958, 965, 964
216, 251, 252, 259, 258, 958, 959, 966, 965
217, 253, 254, 261, 260, 960, 961, 968, 967
218, 254, 255, 262, 261, 961, 962, 969, 968
219, 255, 256, 263, 262, 962, 963, 970, 969
220, 256, 257, 264, 263, 963, 964, 971, 970
221, 257, 258, 265, 264, 964, 965, 972, 971
222, 258, 259, 266, 265, 965, 966, 973, 972
223, 260, 261, 268, 267, 967, 968, 975, 974
224, 261, 262, 269, 268, 968, 969, 976, 975
225, 262, 263, 270, 269, 969, 970, 977, 976
226, 263, 264, 271, 270, 970, 971, 978, 977
227, 264, 265, 272, 271, 971, 972, 979, 978
228, 265, 266, 273, 272, 972, 973, 980, 979
229, 267, 268, 275, 274, 974, 975, 982, 981
230, 268, 269, 276, 275, 975, 976, 983, 982
231, 269, 270, 277, 276, 976, 977, 984, 983
232, 270, 271, 278, 277, 977, 978, 985, 984
233, 271, 272, 279, 278, 978, 979, 986, 985
234, 272, 273, 280, 279, 979, 980, 987, 986
235, 274, 275, 282, 281, 981, 982, 989, 988
236, 275, 276, 283, 282, 982, 983, 990, 989
237, 276, 277, 284, 283, 983, 984, 991, 990
238, 277, 278, 285, 284, 984, 985, 992, 991
239, 278, 279, 286, 285, 985, 986, 993, 992
240, 279, 280, 287, 286, 986, 987, 994, 993
241, 281, 282, 289, 288, 988, 989, 996, 995
242, 282, 283, 290, 289, 989, 990, 997, 996
243, 283, 284, 291, 290, 990, 991, 998, 997
244, 284, 285, 292, 291, 991, 992, 999, 998
245, 285, 286, 293, 292, 992, 993, 1000, 999
246, 286, 287, 294, 293, 993, 994, 1001, 1000
247, 288, 289, 296, 295, 995, 996, 1003, 1002
248, 289, 290, 297, 296, 996, 997, 1004, 1003
249, 290, 291, 298, 297, 997, 998, 1005, 1004
250, 291, 292, 299, 298, 998, 999, 1006, 1005
251, 292, 293, 300, 299, 999, 1000, 1007, 1006
252, 293, 294, 301, 300, 1000, 1001, 1008, 1007
253, 295, 296, 303, 302, 1002, 1003, 1010, 1009
254, 296, 297, 304, 303, 1003, 1004, 1011, 1010
255, 297, 298, 305, 304, 1004, 1005, 1012, 1011
256, 298, 299, 306, 305, 1005, 1006, 1013, 1012
257, 299, 300, 307, 306, 1006, 1007, 1014, 1013
258, 300, 301, 308, 307, 1007, 1008, 1015, 1014
259, 302, 303, 310, 309, 1009, 1010, 1017, 1016
260, 303, 304, 311, 310, 1010, 1011, 1018, 1017
261, 304, 305, 312, 311, 1011, 1012, 1019, 1018
262, 305, 306, 313, 312, 1012, 1013, 1020, 1019
263, 306, 307, 314, 313, 1013, 1014, 1021, 1020
264, 307, 308, 315, 314, 1014, 1015, 1022, 1021
265, 309, 310, 317, 316, 1016, 1017, 1024, 1023
266, 310, 311, 318, 317, 1017, 1018, 1025, 1024
267, 311, 312, 319, 318, 1018, 1019, 1026, 1025
268, 312, 313, 320, 319, 1019, 1020, 1027, 1026
269, 313, 314, 321, 320, 1020, 1021, 1028, 1027
270, 314, 315, 322, 321, 1021, 1022, 1029, 1028
271, 316, 317, 324, 323, 1023, 1024, 1031, 1030
272, 317, 318, 325, 324, 1024, 1025, 1032, 1031
273, 318, 319, 326, 325, 1025, 1026, 1033, 1032
274, 319, 320, 327, 326, 1026, 1027, 1034, 1033
275, 320, 321, 328, 327, 1027, 1028, 1035, 1034
276, 321, 322, 329, 328, 1028, 1029, 1036, 1035
277, 323, 324, 331, 330, 1030, 1031, 1038, 1037
278, 324, 325, 332, 331, 1031, 1032, 1039, 1038
279, 325, 326, 333, 332, 1032, 1033, 1040, 1039
280, 326, 327, 334, 333, 1033, 1034, 1041, 1040
281, 327, 328, 335, 334, 1034, 1035, 1042, 1041
282, 328, 329, 336, 335, 1035, 1036, 1043, 1042
283, 330, 331, 338, 337, 1037, 1038, 1045, 1044
284, 331, 332, 339, 338, 1038, 1039, 1046, 1045
285, 332, 333, 340, 339, 1039, 1040, 1047, 1046
286, 333, 334, 341, 340, 1040, 1041, 1048, 1047
287, 334, 335, 342, 341, 1041, 1042, 1049, 1048
288, 335, 336, 343, 342, 1042, 1043, 1050, 1049
289, 337, 338, 345, 344, 1044, 1045, 1052, 1051
290, 338, 339, 346, 345, 1045, 1046, 1053, 1052
291, 339, 340, 347, 346, 1046, 1047, 1054, 1053
292, 340, 341, 348, 347, 1047, 1048, 1055, 1054
293, 341, 342, 349, 348, 1048, 1049, 1056, 1055
294, 342, 343, 350, 349, 1049, 1050, 1057, 1056
295, 344, 345, 352, 351, 1051, 1052, 1059, 1058
296, 345, 346, 353, 352, 1052, 1053, 1060, 1059
297, 346, 347, 354, 353, 1053, 1054, 1061, 1060
298, 347, 348, 355, 354, 1054, 1055, 1062, 1061
299, 348, 349, 356, 355, 1055, 1056, 1063, 1062
300, 349, 350, 357, 356, 1056, 1057, 1064, 1063
301, 351, 352, 359, 358, 1058, 1059, 1066, 1065
302, 352, 353, 360, 359, 1059, 1060, 1067, 1066
303, 353, 354, 361, 360, 1060, 1061, 1068, 1067
304, 354, 355, 362, 361, 1061, 1062, 1069, 1068
305, 355, 356, 363, 362, 1062, 1063, 1070, 1069
306, 356, 357, 364, 363, 1063, 1064, 1071, 1070
307, 358, 359, 366, 365, 1065, 1066, 1073, 1072
308, 359, 360, 367, 366, 1066, 1067, 1074, 1073
309, 360, 361, 368, 367, 1067, 1068, 1075, 1074
310, 361, 362, 369, 368, 1068, 1069, 1076, 1075
311, 362, 363, 370, 369, 1069, 1070, 1077, 1076
312, 363, 364, 371, 370, 1070, 1071, 1078, 1077
313, 365, 366, 373, 372, 1072, 1073, 1080, 1079
314, 366, 367, 374, 373, 1073, 1074, 1081, 1080
315, 367, 368, 375, 374, 1074, 1075, 1082, 1081
316, 368, 369, 376, 375, 1075, 1076, 1083, 1082
317, 369, 370, 377, 376, 1076, 1077, 1084, 1083
318, 370, 371, 378, 377, 1077, 1078, 1085, 1084
319, 372, 373, 380, 379, 1079, 1080, 1087, 1086
320, 373, 374, 381, 380, 1080, 1081, 1088, 1087
321, 374, 375, 382, 381, 1081, 1082, 1089, 1088
322, 375, 376, 383, 382, 1082, 1083, 1090, 1089
323, 376, 377, 384, 383, 1083, 1084, 1091, 1090
324, 377, 378, 385, 384, 1084, 1085, 1092, 1091
325, 379, 380, 387, 386, 1086, 1087, 1094, 1093
326, 380, 381, 388, 387, 1087, 1088, 1095, 1094
327, 381, 382, 389, 388, 1088, 1089, 1096, 1095
328, 382, 383, 390, 389, 1089, 1090, 1097, 1096
329, 383, 384, 391, 390, 1090, 1091, 1098, 1097
330, 384, 385, 392, 391, 1091, 1092, 1099, 1098
331, 386, 387, 394, 393, 1093, 1094, 1101, 1100
332, 387, 388, 395, 394, 1094, 1095, 1102, 1101
333, 388, 389, 396, 395, 1095, 1096, 1103, 1102
334, 389, 390, 397, 396, 1096, 1097, 1104, 1103
335, 390, 391, 398, 397, 1097, 1098, 1105, 1104
336, 391, 392, 399, 398, 1098, 1099, 1106, 1105
337, 393, 394, 401, 400, 1100, 1101, 1108, 1107
338, 394, 395, 402, 401, 1101, 1102, 1109, 1108
339, 395, 396, 403, 402, 1102, 1103, 1110, 1109
340, 396, 397, 404, 403, 1103, 1104, 1111, 1110
341, 397, 398, 405, 404, 1104, 1105, 1112, 1111
342, 398, 399, 406, 405, 1105, 1106, 1113, 1112
343, 400, 401, 408, 407, 1107, 1108, 1115, 1114
344, 401, 402, 409, 408, 1108, 1109, 1116, 1115
345, 402, 403, 410, 409, 1109, 1110, 1117, 1116
346, 403, 404, 411, 410, 1110, 1111, 1118, 1117
347, 404, 405, 412, 411, 1111, 1112, 1119, 1118
348, 405, 406, 413, 412, 1112, 1113, 1120, 1119
349, 407, 408, 415, 414, 1114, 1115, 1122, 1121
350, 408, 409, 416, 415, 1115, 1116, 1123, 1122
351, 409, 410, 417, 416, 1116, 1117, 1124, 1123
352, 410, 411, 418, 417, 1117, 1118, 1125, 1124
353, 411, 412, 419, 418, 1118, 1119, 1126, 1125
354, 412, 413, 420, 419, 1119, 1120, 1127, 1126
355, 414, 415, 422, 421, 1121, 1122, 1129, 1128
356, 415, 416, 423, 422, 1122, 1123, 1130, 1129
357, 416, 417, 424, 423, 1123, 1124, 1131, 1130
358, 417, 418, 425, 424, 1124, 1125, 1132, 1131
359, 418, 419, 426, 425, 1125, 1126, 1133, 1132
360, 419, 420, 427, 426, 1126, 1127, 1134, 1133
361, 421, 422, 429, 428, 1128, 1129, 1136, 1135
362, 422, 423, 430, 429, 1129, 1130, 1137, 1136
363, 423, 424, 431, 430, 1130, 1131, 1138, 1137
364, 424, 425, 432, 431, 1131, 1132, 1139, 1138
365, 425, 426, 433, 432, 1132, 1133, 1140, 1139
366, 426, 427, 434, 433, 1133, 1134, 1141, 1140
367, 428, 429, 436, 435, 1135, 1136, 1143, 1142
368, 429, 430, 437, 436, 1136, 1137, 1144, 1143
369, 430, 431, 438, 437, 1137, 1138, 1145, 1144
370, 431, 432, 439, 438, 1138, 1139, 1146, 1145
371, 432, 433, 440, 439, 1139, 1140, 1147, 1146
372, 433, 434, 441, 440, 1140, 1141, 1148, 1147
373, 435, 436, 443, 442, 1142, 1143, 1150, 1149
374, 436, 437, 444, 443, 1143, 1144, 1151, 1150
375, 437, 438, 445, 444, 1144, 1145, 1152, 1151
376, 438, 439, 446, 445, 1145, 1146, 1153, 1152
377, 439, 440, 447, 446, 1146, 1147, 1154, 1153
378, 440, 441, 448, 447, 1147, 1148, 1155, 1154
379, 442, 443, 450, 449, 1149, 1150, 1157, 1156
380, 443, 444, 451, 450, 1150, 1151, 1158, 1157
381, 444, 445, 452, 451, 1151, 1152, 1159, 1158
382, 445, 446, 453, 452, 1152, 1153, 1160, 1159
383, 446, 447, 454, 453, 1153, 1154, 1161, 1160
384, 447, 448, 455, 454, 1154, 1155, 1162, 1161
385, 449, 450, 457, 456, 1156, 1157, 1164, 1163
386, 450, 451, 458, 457, 1157, 1158, 1165, 1164
387, 451, 452, 459, 458, 1158, 1159, 1166, 1165
388, 452, 453, 460, 459, 1159, 1160, 1167, 1166
389, 453, 454, 461, 460, 1160, 1161, 1168, 1167
390, 454, 455, 462, 461, 1161, 1162, 1169, 1168
391, 456, 457, 464, 463, 1163, 1164, 1171, 1170
392, 457, 458, 465, 464, 1164, 1165, 1172, 1171
393, 458, 459, 466, 465, 1165, 1166, 1173, 1172
394, 459, 460, 467, 466, 1166, 1167, 1174, 1173
395, 460, 461, 468, 467, 1167, 1168, 1175, 1174
396, 461, 462, 469, 468, 1168, 1169, 1176, 1175
397, 463, 464, 471, 470, 1170, 1171, 1178, 1177
398, 464, 465, 472, 471, 1171, 1172, 1179, 1178
399, 465, 466, 473, 472, 1172, 1173, 1180, 1179
400, 466, 467, 474, 473, 1173, 1174, 1181, 1180
401, 467, 468, 475, 474, 1174, 1175, 1182, 1181
402, 468, 469, 476, 475, 1175, 1176, 1183, 1182
403, 470, 471, 478, 477, 1177, 1178, 1185, 1184
404, 471, 472, 479, 478, 1178, 1179, 1186, 1185
405, 472, 473, 480, 479, 1179, 1180, 1187, 1186
406, 473, 474, 481, 480, 1180, 1181, 1188, 1187
407, 474, 475, 482, 481, 1181, 1182, 1189, 1188
408, 475, 476, 483, 482, 1182, 1183, 1190, 1189
409, 477, 478, 485, 484, 1184, 1185, 1192, 1191
410, 478, 479, 486, 485, 1185, 1186, 1193, 1192
411, 479, 480, 487, 486, 1186, 1187, 1194, 1193
412, 480, 481, 488, 487, 1187, 1188, 1195, 1194
413, 481, 482, 489, 488, 1188, 1189, 1196, 1195
414, 482, 483, 490, 489, 1189, 1190, 1197, 1196
415, 484, 485, 492, 491, 1191, 1192, 1199, 1198
416, 485, 486, 493, 492, 1192, 1193, 1200, 1199
417, 486, 487, 494, 493, 1193, 1194, 1201, 1200
418, 487, 488, 495, 494, 1194, 1195, 1202, 1201
419, 488, 489, 496, 495, 1195, 1196, 1203, 1202
420, 489, 490, 497, 496, 1196, 1197, 1204, 1203
421, 491, 492, 499, 498, 1198, 1199, 1206, 1205
422, 492, 493, 500, 499, 1199, 1200, 1207, 1206
423, 493, 494, 501, 500, 1200, 1201, 1208, 1207
424, 494, 495, 502, 501, 1201, 1202, 1209, 1208
425, 495, 496, 503, 502, 1202, 1203, 1210, 1209
426, 496, 497, 504, 503, 1203, 1204, 1211, 1210
427, 498, 499, 506, 505, 1205, 1206, 1213, 1212
428, 499, 500, 507, 506, 1206, 1207, 1214, 1213
429, 500, 501, 508, 507, 1207, 1208, 1215, 1214
430, 501, 502, 509, 508, 1208, 1209, 1216, 1215
431, 502, 503, 510, 509, 1209, 1210, 1217, 1216
432, 503, 504, 511, 510, 1210, 1211, 1218, 1217
433, 505, 506, 513, 512, 1212, 1213, 1220, 1219
434, 506, 507, 514, 513, 1213, 1214, 1221, 1220
435, 507, 508, 515, 514, 1214, 1215, 1222, 1221
436, 508, 509, 516, 515, 1215, 1216, 1223, 1222
437, 509, 510, 517, 516, 1216, 1217, 1224, 1223
438, 510, 511, 518, 517, 1217, 1218, 1225, 1224
439, 512, 513, 520, 519, 1219, 1220, 1227, 1226
440, 513, 514, 521, 520, 1220, 1221, 1228, 1227
441, 514, 515, 522, 521, 1221, 1222, 1229, 1228
442, 515, 516, 523, 522, 1222, 1223, 1230, 1229
443, 516, 517, 524, 523, 1223, 1224, 1231, 1230
444, 517, 518, 525, 524, 1224, 1225, 1232, 1231
445, 519, 520, 527, 526, 1226, 1227, 1234, 1233
446, 520, 521, 528, 527, 1227, 1228, 1235, 1234
447, 521, 522, 529, 528, 1228, 1229, 1236, 1235
448, 522, 523, 530, 529, 1229, 1230, 1237, 1236
449, 523, 524, 531, 530, 1230, 1231, 1238, 1237
450, 524, 525, 532, 531, 1231, 1232, 1239, 1238
451, 526, 527, 534, 533, 1233, 1234, 1241, 1240
452, 527, 528, 535, 534, 1234, 1235, 1242, 1241
453, 528, 529, 536, 535, 1235, 1236, 1243, 1242
454, 529, 530, 537, 536, 1236, 1237, 1244, 1243
455, 530, 531, 538, 537, 1237, 1238, 1245, 1244
456, 531, 532, 539, 538, 1238, 1239, 1246, 1245
457, 533, 534, 541, 540, 1240, 1241, 1248, 1247
458, 534, 535, 542, 541, 1241, 1242, 1249, 1248
459, 535, 536, 543, 542, 1242, 1243, 1250, 1249
460, 536, 537, 544, 543, 1243, 1244, 1251, 1250
461, 537, 538, 545, 544, 1244, 1245, 1252, 1251
462, 538, 539, 546, 545, 1245, 1246, 1253, 1252
463, 540, 541, 548, 547, 1247, 1248, 1255, 1254
464, 541, 542, 549, 548, 1248, 1249, 1256, 1255
465, 542, 543, 550, 549, 1249, 1250, 1257, 1256
466, 543, 544, 551, 550, 1250, 1251, 1258, 1257
467, 544, 545, 552, 551, 1251, 1252, 1259, 1258
468, 545, 546, 553, 552, 1252, 1253, 1260, 1259
469, 547, 548, 555, 554, 1254, 1255, 1262, 1261
470, 548, 549, 556, 555, 1255, 1256, 1263, 1262
471, 549, 550, 557, 556, 1256, 1257, 1264, 1263
472, 550, 551, 558, 557, 1257, 1258, 1265, 1264
473, 551, 552, 559, 558, 1258, 1259, 1266, 1265
474, 552, 553, 560, 559, 1259, 1260, 1267, 1266
475, 554, 555, 562, 561, 1261, 1262, 1269, 1268
476, 555, 556, 563, 562, 1262, 1263, 1270, 1269
477, 556, 557, 564, 563, 1263, 1264, 1271, 1270
478, 557, 558, 565, 564, 1264, 1265, 1272, 1271
479, 558, 559, 566, 565, 1265, 1266, 1273, 1272
480, 559, 560, 567, 566, 1266, 1267, 1274, 1273
481, 561, 562, 569, 568, 1268, 1269, 1276, 1275
482, 562, 563, 570, 569, 1269, 1270, 1277, 1276
483, 563, 564, 571, 570, 1270, 1271, 1278, 1277
484, 564, 565, 572, 571, 1271, 1272, 1279, 1278
485, 565, 566, 573, 572, 1272, 1273, 1280, 1279
486, 566, 567, 574, 573, 1273, 1274, 1281, 1280
487, 568, 569, 576, 575, 1275, 1276, 1283, 1282
488, 569, 570, 577, 576, 1276, 1277, 1284, 1283
489, 570, 571, 578, 577, 1277, 1278, 1285, 1284
490, 571, 572, 579, 578, 1278, 1279, 1286, 1285
491, 572, 573, 580, 579, 1279, 1280, 1287, 1286
492, 573, 574, 581, 580, 1280, 1281, 1288, 1287
493, 575, 576, 583, 582, 1282, 1283, 1290, 1289
494, 576, 577, 584, 583, 1283, 1284, 1291, 1290
495, 577, 578, 585, 584, 1284, 1285, 1292, 1291
496, 578, 579, 586, 585, 1285, 1286, 1293, 1292
497, 579, 580, 587, 586, 1286, 1287, 1294, 1293
498, 580, 581, 588, 587, 1287, 1288, 1295, 1294
499, 582, 583, 590, 589, 1289, 1290, 1297, 1296
500, 583, 584, 591, 590, 1290, 1291, 1298, 1297
501, 584, 585, 592, 591, 1291, 1292, 1299, 1298
502, 585, 586, 593, 592, 1292, 1293, 1300, 1299
503, 586, 587, 594, 593, 1293, 1294, 1301, 1300
504, 587, 588, 595, 594, 1294, 1295, 1302, 1301
505, 589, 590, 597, 596, 1296, 1297, 1304, 1303
506, 590, 591, 598, 597, 1297, 1298, 1305, 1304
507, 591, 592, 599, 598, 1298, 1299, 1306, 1305
508, 592, 593, 600, 599, 1299, 1300, 1307, 1306
509, 593, 594, 601, 600, 1300, 1301, 1308, 1307
510, 594, 595, 602, 601, 1301, 1302, 1309, 1308
511, 596, 597, 604, 603, 1303, 1304, 1311, 1310
512, 597, 598, 605, 604, 1304, 1305, 1312, 1311
513, 598, 599, 606, 605, 1305, 1306, 1313, 1312
514, 599, 600, 607, 606, 1306, 1307, 1314, 1313
515, 600, 601, 608, 607, 1307, 1308, 1315, 1314
516, 601, 602, 609, 608, 1308, 1309, 1316, 1315
517, 603, 604, 611, 610, 1310, 1311, 1318, 1317
518, 604, 605, 612, 611, 1311, 1312, 1319, 1318
519, 605, 606, 613, 612, 1312, 1313, 1320, 1319
520, 606, 607, 614, 613, 1313, 1314, 1321, 1320
521, 607, 608, 615, 614, 1314, 1315, 1322, 1321
522, 608, 609, 616, 615, 1315, 1316, 1323, 1322
523, 610, 611, 618, 617, 1317, 1318, 1325, 1324
524, 611, 612, 619, 618, 1318, 1319, 1326, 1325
525, 612, 613, 620, 619, 1319, 1320, 1327, 1326
526, 613, 614, 621, 620, 1320, 1321, 1328, 1327
527, 614, 615, 622, 621, 1321, 1322, 1329, 1328
528, 615, 616, 623, 622, 1322, 1323, 1330, 1329
529, 617, 618, 625, 624, 1324, 1325, 1332, 1331
530, 618, 619, 626, 625, 1325, 1326, 1333, 1332
531, 619, 620, 627, 626, 1326, 1327, 1334, 1333
532, 620, 621, 628, 627, 1327, 1328, 1335, 1334
533, 621, 622, 629, 628, 1328, 1329, 1336, 1335
534, 622, 623, 630, 629, 1329, 1330, 1337, 1336
535, 624, 625, 632, 631, 1331, 1332, 1339, 1338
536, 625, 626, 633, 632, 1332, 1333, 1340, 1339
537, 626, 627, 634, 633, 1333, 1334, 1341, 1340
538, 627, 628, 635, 634, 1334, 1335, 1342, 1341
539, 628, 629, 636, 635, 1335, 1336, 1343, 1342
540, 629, 630, 637, 636, 1336, 1337, 1344, 1343
541, 631, 632, 639, 638, 1338, 1339, 1346, 1345
542, 632, 633, 640, 639, 1339, 1340, 1347, 1346
543, 633, 634, 641, 640, 1340, 1341, 1348, 1347
544, 634, 635, 642, 641, 1341, 1342, 1349, 1348
545, 635, 636, 643, 642, 1342, 1343, 1350, 1349
546, 636, 637, 644, 643, 1343, 1344, 1351, 1350
547, 638, 639, 646, 645, 1345, 1346, 1353, 1352
548, 639, 640, 647, 646, 1346, 1347, 1354, 1353
549, 640, 641, 648, 647, 1347, 1348, 1355, 1354
550, 641, 642, 649, 648, 1348, 1349, 1356, 1355
551, 642, 643, 650, 649, 1349, 1350, 1357, 1356
552, 643, 644, 651, 650, 1350, 1351, 1358, 1357
553, 645, 646, 653, 652, 1352, 1353, 1360, 1359
554, 646, 647, 654, 653, 1353, 1354, 1361, 1360
555, 647, 648, 655, 654, 1354, 1355, 1362, 1361
556, 648, 649, 656, 655, 1355, 1356, 1363, 1362
557, 649, 650, 657, 656, 1356, 1357, 1364, 1363
558, 650, 651, 658, 657, 1357, 1358, 1365, 1364
559, 652, 653, 660, 659, 1359, 1360, 1367, 1366
560, 653, 654, 661, 660, 1360, 1361, 1368, 1367
561, 654, 655, 662, 661, 1361, 1362, 1369, 1368
562, 655, 656, 663, 662, 1362, 1363, 1370, 1369
563, 656, 657, 664, 663, 1363, 1364, 1371, 1370
564, 657, 658, 665, 664, 1364, 1365, 1372, 1371
565, 659, 660, 667, 666, 1366, 1367, 1374, 1373
566, 660, 661, 668, 667, 1367, 1368, 1375, 1374
567, 661, 662, 669, 668, 1368, 1369, 1376, 1375
568, 662, 663, 670, 669, 1369, 1370, 1377, 1376
569, 663, 664, 671, 670, 1370, 1371, 1378, 1377
570, 664, 665, 672, 671, 1371, 1372, 1379, 1378
571, 666, 667, 674, 673, 1373, 1374, 1381, 1380
572, 667, 668, 675, 674, 1374, 1375, 1382, 1381
573, 668, 669, 676, 675, 1375, 1376, 1383, 1382
574, 669, 670, 677, 676, 1376, 1377, 1384, 1383
575, 670, 671, 678, 677, 1377, 1378, 1385, 1384
576, 671, 672, 679, 678, 1378, 1379, 1386, 1385
577, 673, 674, 681, 680, 1380, 1381, 1388, 1387
578, 674, 675, 682, 681, 1381, 1382, 1389, 1388
579, 675, 676, 683, 682, 1382, 1383, 1390, 1389
580, 676, 677, 684, 683, 1383, 1384, 1391, 1390
581, 677, 678, 685, 684, 1384, 1385, 1392, 1391
582, 678, 679, 686, 685, 1385, 1386, 1393, 1392
583, 680, 681, 688, 687, 1387, 1388, 1395, 1394
584, 681, 682, 689, 688, 1388, 1389, 1396, 1395
585, 682, 683, 690, 689, 1389, 1390, 1397, 1396
586, 683, 684, 691, 690, 1390, 1391, 1398, 1397
587, 684, 685, 692, 691, 1391, 1392, 1399, 1398
588, 685, 686, 693, 692, 1392, 1393, 1400, 1399
589, 687, 688, 695, 694, 1394, 1395, 1402, 1401
590, 688, 689, 696, 695, 1395, 1396, 1403, 1402
591, 689, 690, 697, 696, 1396, 1397, 1404, 1403
592, 690, 691, 698, 697, 1397, 1398, 1405, 1404
593, 691, 692, 699, 698, 1398, 1399, 1406, 1405
594, 692, 693, 700, 699, 1399, 1400, 1407, 1406
595, 694, 695, 702, 701, 1401, 1402, 1409, 1408
596, 695, 696, 703, 702, 1402, 1403, 1410, 1409
597, 696, 697, 704, 703, 1403, 1404, 1411, 1410
598, 697, 698, 705, 704, 1404, 1405, 1412, 1411
599, 698, 699, 706, 705, 1405, 1406, 1413, 1412
600, 699, 700, 707, 706, 1406, 1407, 1414, 1413
*UEL PROPERTY, ELSET=ESI
1, 8.000000e+09, 0.3600
*NSET, NSET=CONT
1, 7, 8, 14, 15, 21, 22, 28, 29, 35, 36, 42
43, 49, 50, 56, 57, 63, 64, 70, 71, 77, 78, 84
85, 91, 92, 98, 99, 105, 106, 112, 113, 119, 120, 126
127, 133, 134, 140, 141, 147, 148, 154, 155, 161, 162, 168
169, 175, 176, 182, 183, 189, 190, 196, 197, 203, 204, 210
211, 217, 218, 224, 225, 231, 232, 238, 239, 245, 246, 252
253, 259, 260, 266, 267, 273, 274, 280, 281, 287, 288, 294
295, 301, 302, 308, 309, 315, 316, 322, 323, 329, 330, 336
337, 343, 344, 350, 351, 357, 358, 364, 365, 371, 372, 378
379, 385, 386, 392, 393, 399, 400, 406, 407, 413, 414, 420
421, 427, 428, 434, 435, 441, 442, 448, 449, 455, 456, 462
463, 469, 470, 476, 477, 483, 484, 490, 491, 497, 498, 504
505, 511, 512, 518, 519, 525, 526, 532, 533, 539, 540, 546
547, 553, 554, 560, 561, 567, 568, 574, 575, 581, 582, 588
589, 595, 596, 602, 603, 609, 610, 616, 617, 623, 624, 630
631, 637, 638, 644, 645, 651, 652, 658, 659, 665, 666, 672
673, 679, 680, 686, 687, 693, 694, 700, 701, 707, 708, 714
715, 721, 722, 728, 729, 735, 736, 742, 743, 749, 750, 756
757, 763, 764, 770, 771, 777, 778, 784, 785, 791, 792, 798
799, 805, 806, 812, 813, 819, 820, 826, 827, 833, 834, 840
841, 847, 848, 854, 855, 861, 862, 868, 869, 875, 876, 882
883, 889, 890, 896, 897, 903, 904, 910, 911, 917, 918, 924
925, 931, 932, 938, 939, 945, 946, 952, 953, 959, 960, 966
967, 973, 974, 980, 981, 987, 988, 994, 995, 1001, 1002, 1008
1009, 1015, 1016, 1022, 1023, 1029, 1030, 1036, 1037, 1043, 1044, 1050
1051, 1057, 1058, 1064, 1065, 1071, 1072, 1078, 1079, 1085, 1086, 1092
1093, 1099, 1100, 1106, 1107, 1113, 1114, 1120, 1121, 1127, 1128, 1134
1135, 1141, 1142, 1148, 1149, 1155, 1156, 1162, 1163, 1169, 1170, 1176
1177, 1183, 1184, 1190, 1191, 1197, 1198, 1204, 1205, 1211, 1212, 1218
1219, 1225, 1226, 1232, 1233, 1239, 1240, 1246, 1247, 1253, 1254, 1260
1261, 1267, 1268, 1274, 1275, 1281, 1282, 1288, 1289, 1295, 1296, 1302
1303, 1309, 1310, 1316, 1317, 1323, 1324, 1330, 1331, 1337, 1338, 1344
1345, 1351, 1352, 1358, 1359, 1365, 1366, 1372, 1373, 1379, 1380, 1386
1387, 1393, 1394, 1400, 1401, 1407, 1408, 1414
*NSET, NSET=WALL
2, 3, 4, 5, 6, 702, 703, 704, 705, 706, 709, 710
711, 712, 713, 1409, 1410, 1411, 1412, 1413
*NSET, NSET=NALL, GENERATE
1, 1414, 1
*AMPLITUDE, NAME=DOPRAMP, TIME=TOTAL TIME
0.000000e+00, 0.00000000e+00
1.000000e-04, 5.96085666e-01
1.467799e-04, 6.12915430e-01
2.154435e-04, 6.29745194e-01
3.162278e-04, 6.46574957e-01
4.641589e-04, 6.63404721e-01
6.812921e-04, 6.80234485e-01
1.000000e-03, 6.97064249e-01
1.467799e-03, 7.13894013e-01
2.154435e-03, 7.30723777e-01
3.162278e-03, 7.47553541e-01
4.641589e-03, 7.64383305e-01
6.812921e-03, 7.81213069e-01
1.000000e-02, 7.98042833e-01
1.467799e-02, 8.14872597e-01
2.154435e-02, 8.31702361e-01
3.162278e-02, 8.48532125e-01
4.641589e-02, 8.65361889e-01
6.812921e-02, 8.82191652e-01
1.000000e-01, 8.99021416e-01
1.467799e-01, 9.15851180e-01
2.154435e-01, 9.32680944e-01
3.162278e-01, 9.49510708e-01
4.641589e-01, 9.66340472e-01
6.812921e-01, 9.83170236e-01
1.000000e+00, 1.00000000e+00
*STEP, INC=400, UNSYMM=YES
*STATIC
1e-4, 1.0, 1e-9, 0.05
*CONTROLS, PARAMETERS=FIELD
1e-4,,,,,,,1e-4
*BOUNDARY, AMPLITUDE=DOPRAMP
CONT, 1, 1, 2.28027074e+01
CONT, 4, 4, 1.14013537e+01
*BOUNDARY
CONT, 2, 3, 0.
WALL, 4, 4, -10.0000
WALL, 2, 2, 0.
NALL, 3, 3, 0.
*NODE PRINT, NSET=NALL, FREQUENCY=999
U
*END STEP
