*HEADING
ex24 DG quantum slab (gamma=3.6)
*USER ELEMENT, NODES=8, TYPE=U1, PROPERTIES=3, COORDINATES=3, VARIABLES=1, UNSYMM
1,2,3,4
*NODE
1, 0.00000000e+00, 0.00000000e+00, 0.00000000e+00
2, 5.00000000e-07, 0.00000000e+00, 0.00000000e+00
3, 1.00000000e-06, 0.00000000e+00, 0.00000000e+00
4, 1.50000000e-06, 0.00000000e+00, 0.00000000e+00
5, 2.00000000e-06, 0.00000000e+00, 0.00000000e+00
6, 2.50000000e-06, 0.00000000e+00, 0.00000000e+00
7, 3.00000000e-06, 0.00000000e+00, 0.00000000e+00
8, 0.00000000e+00, 1.00000000e-08, 0.00000000e+00
9, 5.00000000e-07, 1.00000000e-08, 0.00000000e+00
10, 1.00000000e-06, 1.00000000e-08, 0.00000000e+00
11, 1.50000000e-06, 1.00000000e-08, 0.00000000e+00
12, 2.00000000e-06, 1.00000000e-08, 0.00000000e+00
13, 2.50000000e-06, 1.00000000e-08, 0.00000000e+00
14, 3.00000000e-06, 1.00000000e-08, 0.00000000e+00
15, 0.00000000e+00, 2.00000000e-08, 0.00000000e+00
16, 5.00000000e-07, 2.00000000e-08, 0.00000000e+00
17, 1.00000000e-06, 2.00000000e-08, 0.00000000e+00
18, 1.50000000e-06, 2.00000000e-08, 0.00000000e+00
19, 2.00000000e-06, 2.00000000e-08, 0.00000000e+00
20, 2.50000000e-06, 2.00000000e-08, 0.00000000e+00
21, 3.00000000e-06, 2.00000000e-08, 0.00000000e+00
22, 0.00000000e+00, 3.00000000e-08, 0.00000000e+00
23, 5.00000000e-07, 3.00000000e-08, 0.00000000e+00
24, 1.00000000e-06, 3.00000000e-08, 0.00000000e+00
25, 1.50000000e-06, 3.00000000e-08, 0.00000000e+00
26, 2.00000000e-06, 3.00000000e-08, 0.00000000e+00
27, 2.50000000e-06, 3.00000000e-08, 0.00000000e+00
28, 3.00000000e-06, 3.00000000e-08, 0.00000000e+00
29, 0.00000000e+00, 4.00000000e-08, 0.00000000e+00
30, 5.00000000e-07, 4.00000000e-08, 0.00000000e+00
31, 1.00000000e-06, 4.00000000e-08, 0.00000000e+00
32, 1.50000000e-06, 4.00000000e-08, 0.00000000e+00
33, 2.00000000e-06, 4.00000000e-08, 0.00000000e+00
34, 2.50000000e-06, 4.00000000e-08, 0.00000000e+00
35, 3.00000000e-06, 4.00000000e-08, 0.00000000e+00
36, 0.00000000e+00, 5.00000000e-08, 0.00000000e+00
37, 5.00000000e-07, 5.00000000e-08, 0.00000000e+00
38, 1.00000000e-06, 5.00000000e-08, 0.00000000e+00
39, 1.50000000e-06, 5.00000000e-08, 0.00000000e+00
40, 2.00000000e-06, 5.00000000e-08, 0.00000000e+00
41, 2.50000000e-06, 5.00000000e-08, 0.00000000e+00
42, 3.00000000e-06, 5.00000000e-08, 0.00000000e+00
43, 0.00000000e+00, 6.00000000e-08, 0.00000000e+00
44, 5.00000000e-07, 6.00000000e-08, 0.00000000e+00
45, 1.00000000e-06, 6.00000000e-08, 0.00000000e+00
46, 1.50000000e-06, 6.00000000e-08, 0.00000000e+00
47, 2.00000000e-06, 6.00000000e-08, 0.00000000e+00
48, 2.50000000e-06, 6.00000000e-08, 0.00000000e+00
49, 3.00000000e-06, 6.00000000e-08, 0.00000000e+00
50, 0.00000000e+00, 7.00000000e-08, 0.00000000e+00
51, 5.00000000e-07, 7.00000000e-08, 0.00000000e+00
52, 1.00000000e-06, 7.00000000e-08, 0.00000000e+00
53, 1.50000000e-06, 7.00000000e-08, 0.00000000e+00
54, 2.00000000e-06, 7.00000000e-08, 0.00000000e+00
55, 2.50000000e-06, 7.00000000e-08, 0.00000000e+00
56, 3.00000000e-06, 7.00000000e-08, 0.00000000e+00
57, 0.00000000e+00, 8.00000000e-08, 0.00000000e+00
58, 5.00000000e-07, 8.00000000e-08, 0.00000000e+00
59, 1.00000000e-06, 8.00000000e-08, 0.00000000e+00
60, 1.50000000e-06, 8.00000000e-08, 0.00000000e+00
61, 2.00000000e-06, 8.00000000e-08, 0.00000000e+00
62, 2.50000000e-06, 8.00000000e-08, 0.00000000e+00
63, 3.00000000e-06, 8.00000000e-08, 0.00000000e+00
64, 0.00000000e+00, 9.00000000e-08, 0.00000000e+00
65, 5.00000000e-07, 9.00000000e-08, 0.00000000e+00
66, 1.00000000e-06, 9.00000000e-08, 0.00000000e+00
67, 1.50000000e-06, 9.00000000e-08, 0.00000000e+00
68, 2.00000000e-06, 9.00000000e-08, 0.00000000e+00
69, 2.50000000e-06, 9.00000000e-08, 0.00000000e+00
70, 3.00000000e-06, 9.00000000e-08, 0.00000000e+00
71, 0.00000000e+00, 1.00000000e-07, 0.00000000e+00
72, 5.00000000e-07, 1.00000000e-07, 0.00000000e+00
73, 1.00000000e-06, 1.00000000e-07, 0.00000000e+00
74, 1.50000000e-06, 1.00000000e-07, 0.00000000e+00
75, 2.00000000e-06, 1.00000000e-07, 0.00000000e+00
76, 2.50000000e-06, 1.00000000e-07, 0.00000000e+00
77, 3.00000000e-06, 1.00000000e-07, 0.00000000e+00
78, 0.00000000e+00, 1.10000000e-07, 0.00000000e+00
79, 5.00000000e-07, 1.10000000e-07, 0.00000000e+00
80, 1.00000000e-06, 1.10000000e-07, 0.00000000e+00
81, 1.50000000e-06, 1.10000000e-07, 0.00000000e+00
82, 2.00000000e-06, 1.10000000e-07, 0.00000000e+00
83, 2.50000000e-06, 1.10000000e-07, 0.00000000e+00
84, 3.00000000e-06, 1.10000000e-07, 0.00000000e+00
85, 0.00000000e+00, 1.20000000e-07, 0.00000000e+00
86, 5.00000000e-07, 1.20000000e-07, 0.00000000e+00
87, 1.00000000e-06, 1.20000000e-07, 0.00000000e+00
88, 1.50000000e-06, 1.20000000e-07, 0.00000000e+00
89, 2.00000000e-06, 1.20000000e-07, 0.00000000e+00
90, 2.50000000e-06, 1.20000000e-07, 0.00000000e+00
91, 3.00000000e-06, 1.20000000e-07, 0.00000000e+00
92, 0.00000000e+00, 1.30000000e-07, 0.00000000e+00
93, 5.00000000e-07, 1.30000000e-07, 0.00000000e+00
94, 1.00000000e-06, 1.30000000e-07, 0.00000000e+00
95, 1.50000000e-06, 1.30000000e-07, 0.00000000e+00
96, 2.00000000e-06, 1.30000000e-07, 0.00000000e+00
97, 2.50000000e-06, 1.30000000e-07, 0.00000000e+00
98, 3.00000000e-06, 1.30000000e-07, 0.00000000e+00
99, 0.00000000e+00, 1.40000000e-07, 0.00000000e+00
100, 5.00000000e-07, 1.40000000e-07, 0.00000000e+00
101, 1.00000000e-06, 1.40000000e-07, 0.00000000e+00
102, 1.50000000e-06, 1.40000000e-07, 0.00000000e+00
103, 2.00000000e-06, 1.40000000e-07, 0.00000000e+00
104, 2.50000000e-06, 1.40000000e-07, 0.00000000e+00
105, 3.00000000e-06, 1.40000000e-07, 0.00000000e+00
106, 0.00000000e+00, 1.50000000e-07, 0.00000000e+00
107, 5.00000000e-07, 1.50000000e-07, 0.00000000e+00
108, 1.00000000e-06, 1.50000000e-07, 0.00000000e+00
109, 1.50000000e-06, 1.50000000e-07, 0.00000000e+00
110, 2.00000000e-06, 1.50000000e-07, 0.00000000e+00
111, 2.50000000e-06, 1.50000000e-07, 0.00000000e+00
112, 3.00000000e-06, 1.50000000e-07, 0.00000000e+00
113, 0.00000000e+00, 1.60000000e-07, 0.00000000e+00
114, 5.00000000e-07, 1.60000000e-07, 0.00000000e+00
115, 1.00000000e-06, 1.60000000e-07, 0.00000000e+00
116, 1.50000000e-06, 1.60000000e-07, 0.00000000e+00
117, 2.00000000e-06, 1.60000000e-07, 0.00000000e+00
118, 2.50000000e-06, 1.60000000e-07, 0.00000000e+00
119, 3.00000000e-06, 1.60000000e-07, 0.00000000e+00
120, 0.00000000e+00, 1.70000000e-07, 0.00000000e+00
121, 5.00000000e-07, 1.70000000e-07, 0.00000000e+00
122, 1.00000000e-06, 1.70000000e-07, 0.00000000e+00
123, 1.50000000e-06, 1.70000000e-07, 0.00000000e+00
124, 2.00000000e-06, 1.70000000e-07, 0.00000000e+00
125, 2.50000000e-06, 1.70000000e-07, 0.00000000e+00
126, 3.00000000e-06, 1.70000000e-07, 0.00000000e+00
127, 0.00000000e+00, 1.80000000e-07, 0.00000000e+00
128, 5.00000000e-07, 1.80000000e-07, 0.00000000e+00
129, 1.00000000e-06, 1.80000000e-07, 0.00000000e+00
130, 1.50000000e-06, 1.80000000e-07, 0.00000000e+00
131, 2.00000000e-06, 1.80000000e-07, 0.00000000e+00
132, 2.50000000e-06, 1.80000000e-07, 0.00000000e+00
133, 3.00000000e-06, 1.80000000e-07, 0.00000000e+00
134, 0.00000000e+00, 1.90000000e-07, 0.00000000e+00
135, 5.00000000e-07, 1.90000000e-07, 0.00000000e+00
136, 1.00000000e-06, 1.90000000e-07, 0.00000000e+00
137, 1.50000000e-06, 1.90000000e-07, 0.00000000e+00
138, 2.00000000e-06, 1.90000000e-07, 0.00000000e+00
139, 2.50000000e-06, 1.90000000e-07, 0.00000000e+00
140, 3.00000000e-06, 1.90000000e-07, 0.00000000e+00
141, 0.00000000e+00, 2.00000000e-07, 0.00000000e+00
142, 5.00000000e-07, 2.00000000e-07, 0.00000000e+00
143, 1.00000000e-06, 2.00000000e-07, 0.00000000e+00
144, 1.50000000e-06, 2.00000000e-07, 0.00000000e+00
145, 2.00000000e-06, 2.00000000e-07, 0.00000000e+00
146, 2.50000000e-06, 2.00000000e-07, 0.00000000e+00
147, 3.00000000e-06, 2.00000000e-07, 0.00000000e+00
148, 0.00000000e+00, 2.10000000e-07, 0.00000000e+00
149, 5.00000000e-07, 2.10000000e-07, 0.00000000e+00
150, 1.00000000e-06, 2.10000000e-07, 0.00000000e+00
151, 1.50000000e-06, 2.10000000e-07, 0.00000000e+00
152, 2.00000000e-06, 2.10000000e-07, 0.00000000e+00
153, 2.50000000e-06, 2.10000000e-07, 0.00000000e+00
154, 3.00000000e-06, 2.10000000e-07, 0.00000000e+00
155, 0.00000000e+00, 2.20000000e-07, 0.00000000e+00
156, 5.00000000e-07, 2.20000000e-07, 0.00000000e+00
157, 1.00000000e-06, 2.20000000e-07, 0.00000000e+00
158, 1.50000000e-06, 2.20000000e-07, 0.00000000e+00
159, 2.00000000e-06, 2.20000000e-07, 0.00000000e+00
160, 2.50000000e-06, 2.20000000e-07, 0.00000000e+00
161, 3.00000000e-06, 2.20000000e-07, 0.00000000e+00
162, 0.00000000e+00, 2.30000000e-07, 0.00000000e+00
163, 5.00000000e-07, 2.30000000e-07, 0.00000000e+00
164, 1.00000000e-06, 2.30000000e-07, 0.00000000e+00
165, 1.50000000e-06, 2.30000000e-07, 0.00000000e+00
166, 2.00000000e-06, 2.30000000e-07, 0.00000000e+00
167, 2.50000000e-06, 2.30000000e-07, 0.00000000e+00
168, 3.00000000e-06, 2.30000000e-07, 0.00000000e+00
169, 0.00000000e+00, 2.40000000e-07, 0.00000000e+00
170, 5.00000000e-07, 2.40000000e-07, 0.00000000e+00
171, 1.00000000e-06, 2.40000000e-07, 0.00000000e+00
172, 1.50000000e-06, 2.40000000e-07, 0.00000000e+00
173, 2.00000000e-06, 2.40000000e-07, 0.00000000e+00
174, 2.50000000e-06, 2.40000000e-07, 0.00000000e+00
175, 3.00000000e-06, 2.40000000e-07, 0.00000000e+00
176, 0.00000000e+00, 2.50000000e-07, 0.00000000e+00
177, 5.00000000e-07, 2.50000000e-07, 0.00000000e+00
178, 1.00000000e-06, 2.50000000e-07, 0.00000000e+00
179, 1.50000000e-06, 2.50000000e-07, 0.00000000e+00
180, 2.00000000e-06, 2.50000000e-07, 0.00000000e+00
181, 2.50000000e-06, 2.50000000e-07, 0.00000000e+00
182, 3.00000000e-06, 2.50000000e-07, 0.00000000e+00
183, 0.00000000e+00, 2.60000000e-07, 0.00000000e+00
184, 5.00000000e-07, 2.60000000e-07, 0.00000000e+00
185, 1.00000000e-06, 2.60000000e-07, 0.00000000e+00
186, 1.50000000e-06, 2.60000000e-07, 0.00000000e+00
187, 2.00000000e-06, 2.60000000e-07, 0.00000000e+00
188, 2.50000000e-06, 2.60000000e-07, 0.00000000e+00
189, 3.00000000e-06, 2.60000000e-07, 0.00000000e+00
190, 0.00000000e+00, 2.70000000e-07, 0.00000000e+00
191, 5.00000000e-07, 2.70000000e-07, 0.00000000e+00
192, 1.00000000e-06, 2.70000000e-07, 0.00000000e+00
193, 1.50000000e-06, 2.70000000e-07, 0.00000000e+00
194, 2.00000000e-06, 2.70000000e-07, 0.00000000e+00
195, 2.50000000e-06, 2.70000000e-07, 0.00000000e+00
196, 3.00000000e-06, 2.70000000e-07, 0.00000000e+00
197, 0.00000000e+00, 2.80000000e-07, 0.00000000e+00
198, 5.00000000e-07, 2.80000000e-07, 0.00000000e+00
199, 1.00000000e-06, 2.80000000e-07, 0.00000000e+00
200, 1.50000000e-06, 2.80000000e-07, 0.00000000e+00
201, 2.00000000e-06, 2.80000000e-07, 0.00000000e+00
202, 2.50000000e-06, 2.80000000e-07, 0.00000000e+00
203, 3.00000000e-06, 2.80000000e-07, 0.00000000e+00
204, 0.00000000e+00, 2.90000000e-07, 0.00000000e+00
205, 5.00000000e-07, 2.90000000e-07, 0.00000000e+00
206, 1.00000000e-06, 2.90000000e-07, 0.00000000e+00
207, 1.50000000e-06, 2.90000000e-07, 0.00000000e+00
208, 2.00000000e-06, 2.90000000e-07, 0.00000000e+00
209, 2.50000000e-06, 2.90000000e-07, 0.00000000e+00
210, 3.00000000e-06, 2.90000000e-07, 0.00000000e+00
211, 0.00000000e+00, 3.00000000e-07, 0.00000000e+00
212, 5.00000000e-07, 3.00000000e-07, 0.00000000e+00
213, 1.00000000e-06, 3.00000000e-07, 0.00000000e+00
214, 1.50000000e-06, 3.00000000e-07, 0.00000000e+00
215, 2.00000000e-06, 3.00000000e-07, 0.00000000e+00
216, 2.50000000e-06, 3.00000000e-07, 0.00000000e+00
217, 3.00000000e-06, 3.00000000e-07, 0.00000000e+00
218, 0.00000000e+00, 3.10000000e-07, 0.00000000e+00
219, 5.00000000e-07, 3.10000000e-07, 0.00000000e+00
220, 1.00000000e-06, 3.10000000e-07, 0.00000000e+00
221, 1.50000000e-06, 3.10000000e-07, 0.00000000e+00
222, 2.00000000e-06, 3.10000000e-07, 0.00000000e+00
223, 2.50000000e-06, 3.10000000e-07, 0.00000000e+00
224, 3.00000000e-06, 3.10000000e-07, 0.00000000e+00
225, 0.00000000e+00, 3.20000000e-07, 0.00000000e+00
226, 5.00000000e-07, 3.20000000e-07, 0.00000000e+00
227, 1.00000000e-06, 3.20000000e-07, 0.00000000e+00
228, 1.50000000e-06, 3.20000000e-07, 0.00000000e+00
229, 2.00000000e-06, 3.20000000e-07, 0.00000000e+00
230, 2.50000000e-06, 3.20000000e-07, 0.00000000e+00
231, 3.00000000e-06, 3.20000000e-07, 0.00000000e+00
232, 0.00000000e+00, 3.30000000e-07, 0.00000000e+00
233, 5.00000000e-07, 3.30000000e-07, 0.00000000e+00
234, 1.00000000e-06, 3.30000000e-07, 0.00000000e+00
235, 1.50000000e-06, 3.30000000e-07, 0.00000000e+00
236, 2.00000000e-06, 3.30000000e-07, 0.00000000e+00
237, 2.50000000e-06, 3.30000000e-07, 0.00000000e+00
238, 3.00000000e-06, 3.30000000e-07, 0.00000000e+00
239, 0.00000000e+00, 3.40000000e-07, 0.00000000e+00
240, 5.00000000e-07, 3.40000000e-07, 0.00000000e+00
241, 1.00000000e-06, 3.40000000e-07, 0.00000000e+00
242, 1.50000000e-06, 3.40000000e-07, 0.00000000e+00
243, 2.00000000e-06, 3.40000000e-07, 0.00000000e+00
244, 2.50000000e-06, 3.40000000e-07, 0.00000000e+00
245, 3.00000000e-06, 3.40000000e-07, 0.00000000e+00
246, 0.00000000e+00, 3.50000000e-07, 0.00000000e+00
247, 5.00000000e-07, 3.50000000e-07, 0.00000000e+00
248, 1.00000000e-06, 3.50000000e-07, 0.00000000e+00
249, 1.50000000e-06, 3.50000000e-07, 0.00000000e+00
250, 2.00000000e-06, 3.50000000e-07, 0.00000000e+00
251, 2.50000000e-06, 3.50000000e-07, 0.00000000e+00
252, 3.00000000e-06, 3.50000000e-07, 0.00000000e+00
253, 0.00000000e+00, 3.60000000e-07, 0.00000000e+00
254, 5.00000000e-07, 3.60000000e-07, 0.00000000e+00
255, 1.00000000e-06, 3.60000000e-07, 0.00000000e+00
256, 1.50000000e-06, 3.60000000e-07, 0.00000000e+00
257, 2.00000000e-06, 3.60000000e-07, 0.00000000e+00
258, 2.50000000e-06, 3.60000000e-07, 0.00000000e+00
259, 3.00000000e-06, 3.60000000e-07, 0.00000000e+00
260, 0.00000000e+00, 3.70000000e-07, 0.00000000e+00
261, 5.00000000e-07, 3.70000000e-07, 0.00000000e+00
262, 1.00000000e-06, 3.70000000e-07, 0.00000000e+00
263, 1.50000000e-06, 3.70000000e-07, 0.00000000e+00
264, 2.00000000e-06, 3.70000000e-07, 0.00000000e+00
265, 2.50000000e-06, 3.70000000e-07, 0.00000000e+00
266, 3.00000000e-06, 3.70000000e-07, 0.00000000e+00
267, 0.00000000e+00, 3.80000000e-07, 0.00000000e+00
268, 5.00000000e-07, 3.80000000e-07, 0.00000000e+00
269, 1.00000000e-06, 3.80000000e-07, 0.00000000e+00
270, 1.50000000e-06, 3.80000000e-07, 0.00000000e+00
271, 2.00000000e-06, 3.80000000e-07, 0.00000000e+00
272, 2.50000000e-06, 3.80000000e-07, 0.00000000e+00
273, 3.00000000e-06, 3.80000000e-07, 0.00000000e+00
274, 0.00000000e+00, 3.90000000e-07, 0.00000000e+00
275, 5.00000000e-07, 3.90000000e-07, 0.00000000e+00
276, 1.00000000e-06, 3.90000000e-07, 0.00000000e+00
277, 1.50000000e-06, 3.90000000e-07, 0.00000000e+00
278, 2.00000000e-06, 3.90000000e-07, 0.00000000e+00
279, 2.50000000e-06, 3.90000000e-07, 0.00000000e+00
280, 3.00000000e-06, 3.90000000e-07, 0.00000000e+00
281, 0.00000000e+00, 4.00000000e-07, 0.00000000e+00
282, 5.00000000e-07, 4.00000000e-07, 0.00000000e+00
283, 1.00000000e-06, 4.00000000e-07, 0.00000000e+00
284, 1.50000000e-06, 4.00000000e-07, 0.00000000e+00
285, 2.00000000e-06, 4.00000000e-07, 0.00000000e+00
286, 2.50000000e-06, 4.00000000e-07, 0.00000000e+00
287, 3.00000000e-06, 4.00000000e-07, 0.00000000e+00
288, 0.00000000e+00, 4.10000000e-07, 0.00000000e+00
289, 5.00000000e-07, 4.10000000e-07, 0.00000000e+00
290, 1.00000000e-06, 4.10000000e-07, 0.00000000e+00
291, 1.50000000e-06, 4.10000000e-07, 0.00000000e+00
292, 2.00000000e-06, 4.10000000e-07, 0.00000000e+00
293, 2.50000000e-06, 4.10000000e-07, 0.00000000e+00
294, 3.00000000e-06, 4.10000000e-07, 0.00000000e+00
295, 0.00000000e+00, 4.20000000e-07, 0.00000000e+00
296, 5.00000000e-07, 4.20000000e-07, 0.00000000e+00
297, 1.00000000e-06, 4.20000000e-07, 0.00000000e+00
298, 1.50000000e-06, 4.20000000e-07, 0.00000000e+00
299, 2.00000000e-06, 4.20000000e-07, 0.00000000e+00
300, 2.50000000e-06, 4.20000000e-07, 0.00000000e+00
301, 3.00000000e-06, 4.20000000e-07, 0.00000000e+00
302, 0.00000000e+00, 4.30000000e-07, 0.00000000e+00
303, 5.00000000e-07, 4.30000000e-07, 0.00000000e+00
304, 1.00000000e-06, 4.30000000e-07, 0.00000000e+00
305, 1.50000000e-06, 4.30000000e-07, 0.00000000e+00
306, 2.00000000e-06, 4.30000000e-07, 0.00000000e+00
307, 2.50000000e-06, 4.30000000e-07, 0.00000000e+00
308, 3.00000000e-06, 4.30000000e-07, 0.00000000e+00
309, 0.00000000e+00, 4.40000000e-07, 0.00000000e+00
310, 5.00000000e-07, 4.40000000e-07, 0.00000000e+00
311, 1.00000000e-06, 4.40000000e-07, 0.00000000e+00
312, 1.50000000e-06, 4.40000000e-07, 0.00000000e+00
313, 2.00000000e-06, 4.40000000e-07, 0.00000000e+00
314, 2.50000000e-06, 4.40000000e-07, 0.00000000e+00
315, 3.00000000e-06, 4.40000000e-07, 0.00000000e+00
316, 0.00000000e+00, 4.50000000e-07, 0.00000000e+00
317, 5.00000000e-07, 4.50000000e-07, 0.00000000e+00
318, 1.00000000e-06, 4.50000000e-07, 0.00000000e+00
319, 1.50000000e-06, 4.50000000e-07, 0.00000000e+00
320, 2.00000000e-06, 4.50000000e-07, 0.00000000e+00
321, 2.50000000e-06, 4.50000000e-07, 0.00000000e+00
322, 3.00000000e-06, 4.50000000e-07, 0.00000000e+00
323, 0.00000000e+00, 4.60000000e-07, 0.00000000e+00
324, 5.00000000e-07, 4.60000000e-07, 0.00000000e+00
325, 1.00000000e-06, 4.60000000e-07, 0.00000000e+00
326, 1.50000000e-06, 4.60000000e-07, 0.00000000e+00
327, 2.00000000e-06, 4.60000000e-07, 0.00000000e+00
328, 2.50000000e-06, 4.60000000e-07, 0.00000000e+00
329, 3.00000000e-06, 4.60000000e-07, 0.00000000e+00
330, 0.00000000e+00, 4.70000000e-07, 0.00000000e+00
331, 5.00000000e-07, 4.70000000e-07, 0.00000000e+00
332, 1.00000000e-06, 4.70000000e-07, 0.00000000e+00
333, 1.50000000e-06, 4.70000000e-07, 0.00000000e+00
334, 2.00000000e-06, 4.70000000e-07, 0.00000000e+00
335, 2.50000000e-06, 4.70000000e-07, 0.00000000e+00
336, 3.00000000e-06, 4.70000000e-07, 0.00000000e+00
337, 0.00000000e+00, 4.80000000e-07, 0.00000000e+00
338, 5.00000000e-07, 4.80000000e-07, 0.00000000e+00
339, 1.00000000e-06, 4.80000000e-07, 0.00000000e+00
340, 1.50000000e-06, 4.80000000e-07, 0.00000000e+00
341, 2.00000000e-06, 4.80000000e-07, 0.00000000e+00
342, 2.50000000e-06, 4.80000000e-07, 0.00000000e+00
343, 3.00000000e-06, 4.80000000e-07, 0.00000000e+00
344, 0.00000000e+00, 4.90000000e-07, 0.00000000e+00
345, 5.00000000e-07, 4.90000000e-07, 0.00000000e+00
346, 1.00000000e-06, 4.90000000e-07, 0.00000000e+00
347, 1.50000000e-06, 4.90000000e-07, 0.00000000e+00
348, 2.00000000e-06, 4.90000000e-07, 0.00000000e+00
349, 2.50000000e-06, 4.90000000e-07, 0.00000000e+00
350, 3.00000000e-06, 4.90000000e-07, 0.00000000e+00
351, 0.00000000e+00, 5.00000000e-07, 0.00000000e+00
352, 5.00000000e-07, 5.00000000e-07, 0.00000000e+00
353, 1.00000000e-06, 5.00000000e-07, 0.00000000e+00
354, 1.50000000e-06, 5.00000000e-07, 0.00000000e+00
355, 2.00000000e-06, 5.00000000e-07, 0.00000000e+00
356, 2.50000000e-06, 5.00000000e-07, 0.00000000e+00
357, 3.00000000e-06, 5.00000000e-07, 0.00000000e+00
358, 0.00000000e+00, 0.00000000e+00, 1.00000000e-07
359, 5.00000000e-07, 0.00000000e+00, 1.00000000e-07
360, 1.00000000e-06, 0.00000000e+00, 1.00000000e-07
361, 1.50000000e-06, 0.00000000e+00, 1.00000000e-07
362, 2.00000000e-06, 0.00000000e+00, 1.00000000e-07
363, 2.50000000e-06, 0.00000000e+00, 1.00000000e-07
364, 3.00000000e-06, 0.00000000e+00, 1.00000000e-07
365, 0.00000000e+00, 1.00000000e-08, 1.00000000e-07
366, 5.00000000e-07, 1.00000000e-08, 1.00000000e-07
367, 1.00000000e-06, 1.00000000e-08, 1.00000000e-07
368, 1.50000000e-06, 1.00000000e-08, 1.00000000e-07
369, 2.00000000e-06, 1.00000000e-08, 1.00000000e-07
370, 2.50000000e-06, 1.00000000e-08, 1.00000000e-07
371, 3.00000000e-06, 1.00000000e-08, 1.00000000e-07
372, 0.00000000e+00, 2.00000000e-08, 1.00000000e-07
373, 5.00000000e-07, 2.00000000e-08, 1.00000000e-07
374, 1.00000000e-06, 2.00000000e-08, 1.00000000e-07
375, 1.50000000e-06, 2.00000000e-08, 1.00000000e-07
376, 2.00000000e-06, 2.00000000e-08, 1.00000000e-07
377, 2.50000000e-06, 2.00000000e-08, 1.00000000e-07
378, 3.00000000e-06, 2.00000000e-08, 1.00000000e-07
379, 0.00000000e+00, 3.00000000e-08, 1.00000000e-07
380, 5.00000000e-07, 3.00000000e-08, 1.00000000e-07
381, 1.00000000e-06, 3.00000000e-08, 1.00000000e-07
382, 1.50000000e-06, 3.00000000e-08, 1.00000000e-07
383, 2.00000000e-06, 3.00000000e-08, 1.00000000e-07
384, 2.50000000e-06, 3.00000000e-08, 1.00000000e-07
385, 3.00000000e-06, 3.00000000e-08, 1.00000000e-07
386, 0.00000000e+00, 4.00000000e-08, 1.00000000e-07
387, 5.00000000e-07, 4.00000000e-08, 1.00000000e-07
388, 1.00000000e-06, 4.00000000e-08, 1.00000000e-07
389, 1.50000000e-06, 4.00000000e-08, 1.00000000e-07
390, 2.00000000e-06, 4.00000000e-08, 1.00000000e-07
391, 2.50000000e-06, 4.00000000e-08, 1.00000000e-07
392, 3.00000000e-06, 4.00000000e-08, 1.00000000e-07
393, 0.00000000e+00, 5.00000000e-08, 1.00000000e-07
394, 5.00000000e-07, 5.00000000e-08, 1.00000000e-07
395, 1.00000000e-06, 5.00000000e-08, 1.00000000e-07
396, 1.50000000e-06, 5.00000000e-08, 1.00000000e-07
397, 2.00000000e-06, 5.00000000e-08, 1.00000000e-07
398, 2.50000000e-06, 5.00000000e-08, 1.00000000e-07
399, 3.00000000e-06, 5.00000000e-08, 1.00000000e-07
400, 0.00000000e+00, 6.00000000e-08, 1.00000000e-07
401, 5.00000000e-07, 6.00000000e-08, 1.00000000e-07
402, 1.00000000e-06, 6.00000000e-08, 1.00000000e-07
403, 1.50000000e-06, 6.00000000e-08, 1.00000000e-07
404, 2.00000000e-06, 6.00000000e-08, 1.00000000e-07
405, 2.50000000e-06, 6.00000000e-08, 1.00000000e-07
406, 3.00000000e-06, 6.00000000e-08, 1.00000000e-07
407, 0.00000000e+00, 7.00000000e-08, 1.00000000e-07
408, 5.00000000e-07, 7.00000000e-08, 1.00000000e-07
409, 1.00000000e-06, 7.00000000e-08, 1.00000000e-07
410, 1.50000000e-06, 7.00000000e-08, 1.00000000e-07
411, 2.00000000e-06, 7.00000000e-08, 1.00000000e-07
412, 2.50000000e-06, 7.00000000e-08, 1.00000000e-07
413, 3.00000000e-06, 7.00000000e-08, 1.00000000e-07
414, 0.00000000e+00, 8.00000000e-08, 1.00000000e-07
415, 5.00000000e-07, 8.00000000e-08, 1.00000000e-07
416, 1.00000000e-06, 8.00000000e-08, 1.00000000e-07
417, 1.50000000e-06, 8.00000000e-08, 1.00000000e-07
418, 2.00000000e-06, 8.00000000e-08, 1.00000000e-07
419, 2.50000000e-06, 8.00000000e-08, 1.00000000e-07
420, 3.00000000e-06, 8.00000000e-08, 1.00000000e-07
421, 0.00000000e+00, 9.00000000e-08, 1.00000000e-07
422, 5.00000000e-07, 9.00000000e-08, 1.00000000e-07
423, 1.00000000e-06, 9.00000000e-08, 1.00000000e-07
424, 1.50000000e-06, 9.00000000e-08, 1.00000000e-07
425, 2.00000000e-06, 9.00000000e-08, 1.00000000e-07
426, 2.50000000e-06, 9.00000000e-08, 1.00000000e-07
427, 3.00000000e-06, 9.00000000e-08, 1.00000000e-07
428, 0.00000000e+00, 1.00000000e-07, 1.00000000e-07
429, 5.00000000e-07, 1.00000000e-07, 1.00000000e-07
430, 1.00000000e-06, 1.00000000e-07, 1.00000000e-07
431, 1.50000000e-06, 1.00000000e-07, 1.00000000e-07
432, 2.00000000e-06, 1.00000000e-07, 1.00000000e-07
433, 2.50000000e-06, 1.00000000e-07, 1.00000000e-07
434, 3.00000000e-06, 1.00000000e-07, 1.00000000e-07
435, 0.00000000e+00, 1.10000000e-07, 1.00000000e-07
436, 5.00000000e-07, 1.10000000e-07, 1.00000000e-07
437, 1.00000000e-06, 1.10000000e-07, 1.00000000e-07
438, 1.50000000e-06, 1.10000000e-07, 1.00000000e-07
439, 2.00000000e-06, 1.10000000e-07, 1.00000000e-07
440, 2.50000000e-06, 1.10000000e-07, 1.00000000e-07
441, 3.00000000e-06, 1.10000000e-07, 1.00000000e-07
442, 0.00000000e+00, 1.20000000e-07, 1.00000000e-07
443, 5.00000000e-07, 1.20000000e-07, 1.00000000e-07
444, 1.00000000e-06, 1.20000000e-07, 1.00000000e-07
445, 1.50000000e-06, 1.20000000e-07, 1.00000000e-07
446, 2.00000000e-06, 1.20000000e-07, 1.00000000e-07
447, 2.50000000e-06, 1.20000000e-07, 1.00000000e-07
448, 3.00000000e-06, 1.20000000e-07, 1.00000000e-07
449, 0.00000000e+00, 1.30000000e-07, 1.00000000e-07
450, 5.00000000e-07, 1.30000000e-07, 1.00000000e-07
451, 1.00000000e-06, 1.30000000e-07, 1.00000000e-07
452, 1.50000000e-06, 1.30000000e-07, 1.00000000e-07
453, 2.00000000e-06, 1.30000000e-07, 1.00000000e-07
454, 2.50000000e-06, 1.30000000e-07, 1.00000000e-07
455, 3.00000000e-06, 1.30000000e-07, 1.00000000e-07
456, 0.00000000e+00, 1.40000000e-07, 1.00000000e-07
457, 5.00000000e-07, 1.40000000e-07, 1.00000000e-07
458, 1.00000000e-06, 1.40000000e-07, 1.00000000e-07
459, 1.50000000e-06, 1.40000000e-07, 1.00000000e-07
460, 2.00000000e-06, 1.40000000e-07, 1.00000000e-07
461, 2.50000000e-06, 1.40000000e-07, 1.00000000e-07
462, 3.00000000e-06, 1.40000000e-07, 1.00000000e-07
463, 0.00000000e+00, 1.50000000e-07, 1.00000000e-07
464, 5.00000000e-07, 1.50000000e-07, 1.00000000e-07
465, 1.00000000e-06, 1.50000000e-07, 1.00000000e-07
466, 1.50000000e-06, 1.50000000e-07, 1.00000000e-07
467, 2.00000000e-06, 1.50000000e-07, 1.00000000e-07
468, 2.50000000e-06, 1.50000000e-07, 1.00000000e-07
469, 3.00000000e-06, 1.50000000e-07, 1.00000000e-07
470, 0.00000000e+00, 1.60000000e-07, 1.00000000e-07
471, 5.00000000e-07, 1.60000000e-07, 1.00000000e-07
472, 1.00000000e-06, 1.60000000e-07, 1.00000000e-07
473, 1.50000000e-06, 1.60000000e-07, 1.00000000e-07
474, 2.00000000e-06, 1.60000000e-07, 1.00000000e-07
475, 2.50000000e-06, 1.60000000e-07, 1.00000000e-07
476, 3.00000000e-06, 1.60000000e-07, 1.00000000e-07
477, 0.00000000e+00, 1.70000000e-07, 1.00000000e-07
478, 5.00000000e-07, 1.70000000e-07, 1.00000000e-07
479, 1.00000000e-06, 1.70000000e-07, 1.00000000e-07
480, 1.50000000e-06, 1.70000000e-07, 1.00000000e-07
481, 2.00000000e-06, 1.70000000e-07, 1.00000000e-07
482, 2.50000000e-06, 1.70000000e-07, 1.00000000e-07
483, 3.00000000e-06, 1.70000000e-07, 1.00000000e-07
484, 0.00000000e+00, 1.80000000e-07, 1.00000000e-07
485, 5.00000000e-07, 1.80000000e-07, 1.00000000e-07
486, 1.00000000e-06, 1.80000000e-07, 1.00000000e-07
487, 1.50000000e-06, 1.80000000e-07, 1.00000000e-07
488, 2.00000000e-06, 1.80000000e-07, 1.00000000e-07
489, 2.50000000e-06, 1.80000000e-07, 1.00000000e-07
490, 3.00000000e-06, 1.80000000e-07, 1.00000000e-07
491, 0.00000000e+00, 1.90000000e-07, 1.00000000e-07
492, 5.00000000e-07, 1.90000000e-07, 1.00000000e-07
493, 1.00000000e-06, 1.90000000e-07, 1.00000000e-07
494, 1.50000000e-06, 1.90000000e-07, 1.00000000e-07
495, 2.00000000e-06, 1.90000000e-07, 1.00000000e-07
496, 2.50000000e-06, 1.90000000e-07, 1.00000000e-07
497, 3.00000000e-06, 1.90000000e-07, 1.00000000e-07
498, 0.00000000e+00, 2.00000000e-07, 1.00000000e-07
499, 5.00000000e-07, 2.00000000e-07, 1.00000000e-07
500, 1.00000000e-06, 2.00000000e-07, 1.00000000e-07
501, 1.50000000e-06, 2.00000000e-07, 1.00000000e-07
502, 2.00000000e-06, 2.00000000e-07, 1.00000000e-07
503, 2.50000000e-06, 2.00000000e-07, 1.00000000e-07
504, 3.00000000e-06, 2.00000000e-07, 1.00000000e-07
505, 0.00000000e+00, 2.10000000e-07, 1.00000000e-07
506, 5.00000000e-07, 2.10000000e-07, 1.00000000e-07
507, 1.00000000e-06, 2.10000000e-07, 1.00000000e-07
508, 1.50000000e-06, 2.10000000e-07, 1.00000000e-07
509, 2.00000000e-06, 2.10000000e-07, 1.00000000e-07
510, 2.50000000e-06, 2.10000000e-07, 1.00000000e-07
511, 3.00000000e-06, 2.10000000e-07, 1.00000000e-07
512, 0.00000000e+00, 2.20000000e-07, 1.00000000e-07
513, 5.00000000e-07, 2.20000000e-07, 1.00000000e-07
514, 1.00000000e-06, 2.20000000e-07, 1.00000000e-07
515, 1.50000000e-06, 2.20000000e-07, 1.00000000e-07
516, 2.00000000e-06, 2.20000000e-07, 1.00000000e-07
517, 2.50000000e-06, 2.20000000e-07, 1.00000000e-07
518, 3.00000000e-06, 2.20000000e-07, 1.00000000e-07
519, 0.00000000e+00, 2.30000000e-07, 1.00000000e-07
520, 5.00000000e-07, 2.30000000e-07, 1.00000000e-07
521, 1.00000000e-06, 2.30000000e-07, 1.00000000e-07
522, 1.50000000e-06, 2.30000000e-07, 1.00000000e-07
523, 2.00000000e-06, 2.30000000e-07, 1.00000000e-07
524, 2.50000000e-06, 2.30000000e-07, 1.00000000e-07
525, 3.00000000e-06, 2.30000000e-07, 1.00000000e-07
526, 0.00000000e+00, 2.40000000e-07, 1.00000000e-07
527, 5.00000000e-07, 2.40000000e-07, 1.00000000e-07
528, 1.00000000e-06, 2.40000000e-07, 1.00000000e-07
529, 1.50000000e-06, 2.40000000e-07, 1.00000000e-07
530, 2.00000000e-06, 2.40000000e-07, 1.00000000e-07
531, 2.50000000e-06, 2.40000000e-07, 1.00000000e-07
532, 3.00000000e-06, 2.40000000e-07, 1.00000000e-07
533, 0.00000000e+00, 2.50000000e-07, 1.00000000e-07
534, 5.00000000e-07, 2.50000000e-07, 1.00000000e-07
535, 1.00000000e-06, 2.50000000e-07, 1.00000000e-07
536, 1.50000000e-06, 2.50000000e-07, 1.00000000e-07
537, 2.00000000e-06, 2.50000000e-07, 1.00000000e-07
538, 2.50000000e-06, 2.50000000e-07, 1.00000000e-07
539, 3.00000000e-06, 2.50000000e-07, 1.00000000e-07
540, 0.00000000e+00, 2.60000000e-07, 1.00000000e-07
541, 5.00000000e-07, 2.60000000e-07, 1.00000000e-07
542, 1.00000000e-06, 2.60000000e-07, 1.00000000e-07
543, 1.50000000e-06, 2.60000000e-07, 1.00000000e-07
544, 2.00000000e-06, 2.60000000e-07, 1.00000000e-07
545, 2.50000000e-06, 2.60000000e-07, 1.00000000e-07
546, 3.00000000e-06, 2.60000000e-07, 1.00000000e-07
547, 0.00000000e+00, 2.70000000e-07, 1.00000000e-07
548, 5.00000000e-07, 2.70000000e-07, 1.00000000e-07
549, 1.00000000e-06, 2.70000000e-07, 1.00000000e-07
550, 1.50000000e-06, 2.70000000e-07, 1.00000000e-07
551, 2.00000000e-06, 2.70000000e-07, 1.00000000e-07
552, 2.50000000e-06, 2.70000000e-07, 1.00000000e-07
553, 3.00000000e-06, 2.70000000e-07, 1.00000000e-07
554, 0.00000000e+00, 2.80000000e-07, 1.00000000e-07
555, 5.00000000e-07, 2.80000000e-07, 1.00000000e-07
556, 1.00000000e-06, 2.80000000e-07, 1.00000000e-07
557, 1.50000000e-06, 2.80000000e-07, 1.00000000e-07
558, 2.00000000e-06, 2.80000000e-07, 1.00000000e-07
559, 2.50000000e-06, 2.80000000e-07, 1.00000000e-07
560, 3.00000000e-06, 2.80000000e-07, 1.00000000e-07
561, 0.00000000e+00, 2.90000000e-07, 1.00000000e-07
562, 5.00000000e-07, 2.90000000e-07, 1.00000000e-07
563, 1.00000000e-06, 2.90000000e-07, 1.00000000e-07
564, 1.50000000e-06, 2.90000000e-07, 1.00000000e-07
565, 2.00000000e-06, 2.90000000e-07, 1.00000000e-07
566, 2.50000000e-06, 2.90000000e-07, 1.00000000e-07
567, 3.00000000e-06, 2.90000000e-07, 1.00000000e-07
568, 0.00000000e+00, 3.00000000e-07, 1.00000000e-07
569, 5.00000000e-07, 3.00000000e-07, 1.00000000e-07
570, 1.00000000e-06, 3.00000000e-07, 1.00000000e-07
571, 1.50000000e-06, 3.00000000e-07, 1.00000000e-07
572, 2.00000000e-06, 3.00000000e-07, 1.00000000e-07
573, 2.50000000e-06, 3.00000000e-07, 1.00000000e-07
574, 3.00000000e-06, 3.00000000e-07, 1.00000000e-07
575, 0.00000000e+00, 3.10000000e-07, 1.00000000e-07
576, 5.00000000e-07, 3.10000000e-07, 1.00000000e-07
577, 1.00000000e-06, 3.10000000e-07, 1.00000000e-07
578, 1.50000000e-06, 3.10000000e-07, 1.00000000e-07
579, 2.00000000e-06, 3.10000000e-07, 1.00000000e-07
580, 2.50000000e-06, 3.10000000e-07, 1.00000000e-07
581, 3.00000000e-06, 3.10000000e-07, 1.00000000e-07
582, 0.00000000e+00, 3.20000000e-07, 1.00000000e-07
583, 5.00000000e-07, 3.20000000e-07, 1.00000000e-07
584, 1.00000000e-06, 3.20000000e-07, 1.00000000e-07
585, 1.50000000e-06, 3.20000000e-07, 1.00000000e-07
586, 2.00000000e-06, 3.20000000e-07, 1.00000000e-07
587, 2.50000000e-06, 3.20000000e-07, 1.00000000e-07
588, 3.00000000e-06, 3.20000000e-07, 1.00000000e-07
589, 0.00000000e+00, 3.30000000e-07, 1.00000000e-07
590, 5.00000000e-07, 3.30000000e-07, 1.00000000e-07
591, 1.00000000e-06, 3.30000000e-07, 1.00000000e-07
592, 1.50000000e-06, 3.30000000e-07, 1.00000000e-07
593, 2.00000000e-06, 3.30000000e-07, 1.00000000e-07
594, 2.50000000e-06, 3.30000000e-07, 1.00000000e-07
595, 3.00000000e-06, 3.30000000e-07, 1.00000000e-07
596, 0.00000000e+00, 3.40000000e-07, 1.00000000e-07
597, 5.00000000e-07, 3.40000000e-07, 1.00000000e-07
598, 1.00000000e-06, 3.40000000e-07, 1.00000000e-07
599, 1.50000000e-06, 3.40000000e-07, 1.00000000e-07
600, 2.00000000e-06, 3.40000000e-07, 1.00000000e-07
601, 2.50000000e-06, 3.40000000e-07, 1.00000000e-07
602, 3.00000000e-06, 3.40000000e-07, 1.00000000e-07
603, 0.00000000e+00, 3.50000000e-07, 1.00000000e-07
604, 5.00000000e-07, 3.50000000e-07, 1.00000000e-07
605, 1.00000000e-06, 3.50000000e-07, 1.00000000e-07
606, 1.50000000e-06, 3.50000000e-07, 1.00000000e-07
607, 2.00000000e-06, 3.50000000e-07, 1.00000000e-07
608, 2.50000000e-06, 3.50000000e-07, 1.00000000e-07
609, 3.00000000e-06, 3.50000000e-07, 1.00000000e-07
610, 0.00000000e+00, 3.60000000e-07, 1.00000000e-07
611, 5.00000000e-07, 3.60000000e-07, 1.00000000e-07
612, 1.00000000e-06, 3.60000000e-07, 1.00000000e-07
613, 1.50000000e-06, 3.60000000e-07, 1.00000000e-07
614, 2.00000000e-06, 3.60000000e-07, 1.00000000e-07
615, 2.50000000e-06, 3.60000000e-07, 1.00000000e-07
616, 3.00000000e-06, 3.60000000e-07, 1.00000000e-07
617, 0.00000000e+00, 3.70000000e-07, 1.00000000e-07
618, 5.00000000e-07, 3.70000000e-07, 1.00000000e-07
619, 1.00000000e-06, 3.70000000e-07, 1.00000000e-07
620, 1.50000000e-06, 3.70000000e-07, 1.00000000e-07
621, 2.00000000e-06, 3.70000000e-07, 1.00000000e-07
622, 2.50000000e-06, 3.70000000e-07, 1.00000000e-07
623, 3.00000000e-06, 3.70000000e-07, 1.00000000e-07
624, 0.00000000e+00, 3.80000000e-07, 1.00000000e-07
625, 5.00000000e-07, 3.80000000e-07, 1.00000000e-07
626, 1.00000000e-06, 3.80000000e-07, 1.00000000e-07
627, 1.50000000e-06, 3.80000000e-07, 1.00000000e-07
628, 2.00000000e-06, 3.80000000e-07, 1.00000000e-07
629, 2.50000000e-06, 3.80000000e-07, 1.00000000e-07
630, 3.00000000e-06, 3.80000000e-07, 1.00000000e-07
631, 0.00000000e+00, 3.90000000e-07, 1.00000000e-07
632, 5.00000000e-07, 3.90000000e-07, 1.00000000e-07
633, 1.00000000e-06, 3.90000000e-07, 1.00000000e-07
634, 1.50000000e-06, 3.90000000e-07, 1.00000000e-07
635, 2.00000000e-06, 3.90000000e-07, 1.00000000e-07
636, 2.50000000e-06, 3.90000000e-07, 1.00000000e-07
637, 3.00000000e-06, 3.90000000e-07, 1.00000000e-07
638, 0.00000000e+00, 4.00000000e-07, 1.00000000e-07
639, 5.00000000e-07, 4.00000000e-07, 1.00000000e-07
640, 1.00000000e-06, 4.00000000e-07, 1.00000000e-07
641, 1.50000000e-06, 4.00000000e-07, 1.00000000e-07
642, 2.00000000e-06, 4.00000000e-07, 1.00000000e-07
643, 2.50000000e-06, 4.00000000e-07, 1.00000000e-07
644, 3.00000000e-06, 4.00000000e-07, 1.00000000e-07
645, 0.00000000e+00, 4.10000000e-07, 1.00000000e-07
646, 5.00000000e-07, 4.10000000e-07, 1.00000000e-07
647, 1.00000000e-06, 4.10000000e-07, 1.00000000e-07
648, 1.50000000e-06, 4.10000000e-07, 1.00000000e-07
649, 2.00000000e-06, 4.10000000e-07, 1.00000000e-07
650, 2.50000000e-06, 4.10000000e-07, 1.00000000e-07
651, 3.00000000e-06, 4.10000000e-07, 1.00000000e-07
652, 0.00000000e+00, 4.20000000e-07, 1.00000000e-07
653, 5.00000000e-07, 4.20000000e-07, 1.00000000e-07
654, 1.00000000e-06, 4.20000000e-07, 1.00000000e-07
655, 1.50000000e-06, 4.20000000e-07, 1.00000000e-07
656, 2.00000000e-06, 4.20000000e-07, 1.00000000e-07
657, 2.50000000e-06, 4.20000000e-07, 1.00000000e-07
658, 3.00000000e-06, 4.20000000e-07, 1.00000000e-07
659, 0.00000000e+00, 4.30000000e-07, 1.00000000e-07
660, 5.00000000e-07, 4.30000000e-07, 1.00000000e-07
661, 1.00000000e-06, 4.30000000e-07, 1.00000000e-07
662, 1.50000000e-06, 4.30000000e-07, 1.00000000e-07
663, 2.00000000e-06, 4.30000000e-07, 1.00000000e-07
664, 2.50000000e-06, 4.30000000e-07, 1.00000000e-07
665, 3.00000000e-06, 4.30000000e-07, 1.00000000e-07
666, 0.00000000e+00, 4.40000000e-07, 1.00000000e-07
667, 5.00000000e-07, 4.40000000e-07, 1.00000000e-07
668, 1.00000000e-06, 4.40000000e-07, 1.00000000e-07
669, 1.50000000e-06, 4.40000000e-07, 1.00000000e-07
670, 2.00000000e-06, 4.40000000e-07, 1.00000000e-07
671, 2.50000000e-06, 4.40000000e-07, 1.00000000e-07
672, 3.00000000e-06, 4.40000000e-07, 1.00000000e-07
673, 0.00000000e+00, 4.50000000e-07, 1.00000000e-07
674, 5.00000000e-07, 4.50000000e-07, 1.00000000e-07
675, 1.00000000e-06, 4.50000000e-07, 1.00000000e-07
676, 1.50000000e-06, 4.50000000e-07, 1.00000000e-07
677, 2.00000000e-06, 4.50000000e-07, 1.00000000e-07
678, 2.50000000e-06, 4.50000000e-07, 1.00000000e-07
679, 3.00000000e-06, 4.50000000e-07, 1.00000000e-07
680, 0.00000000e+00, 4.60000000e-07, 1.00000000e-07
681, 5.00000000e-07, 4.60000000e-07, 1.00000000e-07
682, 1.00000000e-06, 4.60000000e-07, 1.00000000e-07
683, 1.50000000e-06, 4.60000000e-07, 1.00000000e-07
684, 2.00000000e-06, 4.60000000e-07, 1.00000000e-07
685, 2.50000000e-06, 4.60000000e-07, 1.00000000e-07
686, 3.00000000e-06, 4.60000000e-07, 1.00000000e-07
687, 0.00000000e+00, 4.70000000e-07, 1.00000000e-07
688, 5.00000000e-07, 4.70000000e-07, 1.00000000e-07
689, 1.00000000e-06, 4.70000000e-07, 1.00000000e-07
690, 1.50000000e-06, 4.70000000e-07, 1.00000000e-07
691, 2.00000000e-06, 4.70000000e-07, 1.00000000e-07
692, 2.50000000e-06, 4.70000000e-07, 1.00000000e-07
693, 3.00000000e-06, 4.70000000e-07, 1.00000000e-07
694, 0.00000000e+00, 4.80000000e-07, 1.00000000e-07
695, 5.00000000e-07, 4.80000000e-07, 1.00000000e-07
696, 1.00000000e-06, 4.80000000e-07, 1.00000000e-07
697, 1.50000000e-06, 4.80000000e-07, 1.00000000e-07
698, 2.00000000e-06, 4.80000000e-07, 1.00000000e-07
699, 2.50000000e-06, 4.80000000e-07, 1.00000000e-07
700, 3.00000000e-06, 4.80000000e-07, 1.00000000e-07
701, 0.00000000e+00, 4.90000000e-07, 1.00000000e-07
702, 5.00000000e-07, 4.90000000e-07, 1.00000000e-07
703, 1.00000000e-06, 4.90000000e-07, 1.00000000e-07
704, 1.50000000e-06, 4.90000000e-07, 1.00000000e-07
705, 2.00000000e-06, 4.90000000e-07, 1.00000000e-07
706, 2.50000000e-06, 4.90000000e-07, 1.00000000e-07
707, 3.00000000e-06, 4.90000000e-07, 1.00000000e-07
708, 0.00000000e+00, 5.00000000e-07, 1.00000000e-07
709, 5.00000000e-07, 5.00000000e-07, 1.00000000e-07
710, 1.00000000e-06, 5.00000000e-07, 1.00000000e-07
711, 1.50000000e-06, 5.00000000e-07, 1.00000000e-07
712, 2.00000000e-06, 5.00000000e-07, 1.00000000e-07
713, 2.50000000e-06, 5.00000000e-07, 1.00000000e-07
714, 3.00000000e-06, 5.00000000e-07, 1.00000000e-07
*ELEMENT, TYPE=U1, ELSET=ESI
1, 1, 2, 9, 8, 358, 359, 366, 365
2, 2, 3, 10, 9, 359, 360, 367, 366
3, 3, 4, 11, 10, 360, 361, 368, 367
4, 4, 5, 12, 11, 361, 362, 369, 368
5, 5, 6, 13, 12, 362, 363, 370, 369
6, 6, 7, 14, 13, 363, 364, 371, 370
7, 8, 9, 16, 15, 365, 366, 373, 372
8, 9, 10, 17, 16, 366, 367, 374, 373
9, 10, 11, 18, 17, 367, 368, 375, 374
10, 11, 12, 19, 18, 368, 369, 376, 375
11, 12, 13, 20, 19, 369, 370, 377, 376
12, 13, 14, 21, 20, 370, 371, 378, 377
13, 15, 16, 23, 22, 372, 373, 380, 379
14, 16, 17, 24, 23, 373, 374, 381, 380
15, 17, 18, 25, 24, 374, 375, 382, 381
16, 18, 19, 26, 25, 375, 376, 383, 382
17, 19, 20, 27, 26, 376, 377, 384, 383
18, 20, 21, 28, 27, 377, 378, 385, 384
19, 22, 23, 30, 29, 379, 380, 387, 386
20, 23, 24, 31, 30, 380, 381, 388, 387
21, 24, 25, 32, 31, 381, 382, 389, 388
22, 25, 26, 33, 32, 382, 383, 390, 389
23, 26, 27, 34, 33, 383, 384, 391, 390
24, 27, 28, 35, 34, 384, 385, 392, 391
25, 29, 30, 37, 36, 386, 387, 394, 393
26, 30, 31, 38, 37, 387, 388, 395, 394
27, 31, 32, 39, 38, 388, 389, 396, 395
28, 32, 33, 40, 39, 389, 390, 397, 396
29, 33, 34, 41, 40, 390, 391, 398, 397
30, 34, 35, 42, 41, 391, 392, 399, 398
31, 36, 37, 44, 43, 393, 394, 401, 400
32, 37, 38, 45, 44, 394, 395, 402, 401
33, 38, 39, 46, 45, 395, 396, 403, 402
34, 39, 40, 47, 46, 396, 397, 404, 403
35, 40, 41, 48, 47, 397, 398, 405, 404
36, 41, 42, 49, 48, 398, 399, 406, 405
37, 43, 44, 51, 50, 400, 401, 408, 407
38, 44, 45, 52, 51, 401, 402, 409, 408
39, 45, 46, 53, 52, 402, 403, 410, 409
40, 46, 47, 54, 53, 403, 404, 411, 410
41, 47, 48, 55, 54, 404, 405, 412, 411
42, 48, 49, 56, 55, 405, 406, 413, 412
43, 50, 51, 58, 57, 407, 408, 415, 414
44, 51, 52, 59, 58, 408, 409, 416, 415
45, 52, 53, 60, 59, 409, 410, 417, 416
46, 53, 54, 61, 60, 410, 411, 418, 417
47, 54, 55, 62, 61, 411, 412, 419, 418
48, 55, 56, 63, 62, 412, 413, 420, 419
49, 57, 58, 65, 64, 414, 415, 422, 421
50, 58, 59, 66, 65, 415, 416, 423, 422
51, 59, 60, 67, 66, 416, 417, 424, 423
52, 60, 61, 68, 67, 417, 418, 425, 424
53, 61, 62, 69, 68, 418, 419, 426, 425
54, 62, 63, 70, 69, 419, 420, 427, 426
55, 64, 65, 72, 71, 421, 422, 429, 428
56, 65, 66, 73, 72, 422, 423, 430, 429
57, 66, 67, 74, 73, 423, 424, 431, 430
58, 67, 68, 75, 74, 424, 425, 432, 431
59, 68, 69, 76, 75, 425, 426, 433, 432
60, 69, 70, 77, 76, 426, 427, 434, 433
61, 71, 72, 79, 78, 428, 429, 436, 435
62, 72, 73, 80, 79, 429, 430, 437, 436
63, 73, 74, 81, 80, 430, 431, 438, 437
64, 74, 75, 82, 81, 431, 432, 439, 438
65, 75, 76, 83, 82, 432, 433, 440, 439
66, 76, 77, 84, 83, 433, 434, 441, 440
67, 78, 79, 86, 85, 435, 436, 443, 442
68, 79, 80, 87, 86, 436, 437, 444, 443
69, 80, 81, 88, 87, 437, 438, 445, 444
70, 81, 82, 89, 88, 438, 439, 446, 445
71, 82, 83, 90, 89, 439, 440, 447, 446
72, 83, 84, 91, 90, 440, 441, 448, 447
73, 85, 86, 93, 92, 442, 443, 450, 449
74, 86, 87, 94, 93, 443, 444, 451, 450
75, 87, 88, 95, 94, 444, 445, 452, 451
76, 88, 89, 96, 95, 445, 446, 453, 452
77, 89, 90, 97, 96, 446, 447, 454, 453
78, 90, 91, 98, 97, 447, 448, 455, 454
79, 92, 93, 100, 99, 449, 450, 457, 456
80, 93, 94, 101, 100, 450, 451, 458, 457
81, 94, 95, 102, 101, 451, 452, 459, 458
82, 95, 96, 103, 102, 452, 453, 460, 459
83, 96, 97, 104, 103, 453, 454, 461, 460
84, 97, 98, 105, 104, 454, 455, 462, 461
85, 99, 100, 107, 106, 456, 457, 464, 463
86, 100, 101, 108, 107, 457, 458, 465, 464
87, 101, 102, 109, 108, 458, 459, 466, 465
88, 102, 103, 110, 109, 459, 460, 467, 466
89, 103, 104, 111, 110, 460, 461, 468, 467
90, 104, 105, 112, 111, 461, 462, 469, 468
91, 106, 107, 114, 113, 463, 464, 471, 470
92, 107, 108, 115, 114, 464, 465, 472, 471
93, 108, 109, 116, 115, 465, 466, 473, 472
94, 109, 110, 117, 116, 466, 467, 474, 473
95, 110, 111, 118, 117, 467, 468, 475, 474
96, 111, 112, 119, 118, 468, 469, 476, 475
97, 113, 114, 121, 120, 470, 471, 478, 477
98, 114, 115, 122, 121, 471, 472, 479, 478
99, 115, 116, 123, 122, 472, 473, 480, 479
100, 116, 117, 124, 123, 473, 474, 481, 480
101, 117, 118, 125, 124, 474, 475, 482, 481
102, 118, 119, 126, 125, 475, 476, 483, 482
103, 120, 121, 128, 127, 477, 478, 485, 484
104, 121, 122, 129, 128, 478, 479, 486, 485
105, 122, 123, 130, 129, 479, 480, 487, 486
106, 123, 124, 131, 130, 480, 481, 488, 487
107, 124, 125, 132, 131, 481, 482, 489, 488
108, 125, 126, 133, 132, 482, 483, 490, 489
109, 127, 128, 135, 134, 484, 485, 492, 491
110, 128, 129, 136, 135, 485, 486, 493, 492
111, 129, 130, 137, 136, 486, 487, 494, 493
112, 130, 131, 138, 137, 487, 488, 495, 494
113, 131, 132, 139, 138, 488, 489, 496, 495
114, 132, 133, 140, 139, 489, 490, 497, 496
115, 134, 135, 142, 141, 491, 492, 499, 498
116, 135, 136, 143, 142, 492, 493, 500, 499
117, 136, 137, 144, 143, 493, 494, 501, 500
118, 137, 138, 145, 144, 494, 495, 502, 501
119, 138, 139, 146, 145, 495, 496, 503, 502
120, 139, 140, 147, 146, 496, 497, 504, 503
121, 141, 142, 149, 148, 498, 499, 506, 505
122, 142, 143, 150, 149, 499, 500, 507, 506
123, 143, 144, 151, 150, 500, 501, 508, 507
124, 144, 145, 152, 151, 501, 502, 509, 508
125, 145, 146, 153, 152, 502, 503, 510, 509
126, 146, 147, 154, 153, 503, 504, 511, 510
127, 148, 149, 156, 155, 505, 506, 513, 512
128, 149, 150, 157, 156, 506, 507, 514, 513
129, 150, 151, 158, 157, 507, 508, 515, 514
130, 151, 152, 159, 158, 508, 509, 516, 515
131, 152, 153, 160, 159, 509, 510, 517, 516
132, 153, 154, 161, 160, 510, 511, 518, 517
133, 155, 156, 163, 162, 512, 513, 520, 519
134, 156, 157, 164, 163, 513, 514, 521, 520
135, 157, 158, 165, 164, 514, 515, 522, 521
136, 158, 159, 166, 165, 515, 516, 523, 522
137, 159, 160, 167, 166, 516, 517, 524, 523
138, 160, 161, 168, 167, 517, 518, 525, 524
139, 162, 163, 170, 169, 519, 520, 527, 526
140, 163, 164, 171, 170, 520, 521, 528, 527
141, 164, 165, 172, 171, 521, 522, 529, 528
142, 165, 166, 173, 172, 522, 523, 530, 529
143, 166, 167, 174, 173, 523, 524, 531, 530
144, 167, 168, 175, 174, 524, 525, 532, 531
145, 169, 170, 177, 176, 526, 527, 534, 533
146, 170, 171, 178, 177, 527, 528, 535, 534
147, 171, 172, 179, 178, 528, 529, 536, 535
148, 172, 173, 180, 179, 529, 530, 537, 536
149, 173, 174, 181, 180, 530, 531, 538, 537
150, 174, 175, 182, 181, 531, 532, 539, 538
151, 176, 177, 184, 183, 533, 534, 541, 540
152, 177, 178, 185, 184, 534, 535, 542, 541
153, 178, 179, 186, 185, 535, 536, 543, 542
154, 179, 180, 187, 186, 536, 537, 544, 543
155, 180, 181, 188, 187, 537, 538, 545, 544
156, 181, 182, 189, 188, 538, 539, 546, 545
157, 183, 184, 191, 190, 540, 541, 548, 547
158, 184, 185, 192, 191, 541, 542, 549, 548
159, 185, 186, 193, 192, 542, 543, 550, 549
160, 186, 187, 194, 193, 543, 544, 551, 550
161, 187, 188, 195, 194, 544, 545, 552, 551
162, 188, 189, 196, 195, 545, 546, 553, 552
163, 190, 191, 198, 197, 547, 548, 555, 554
164, 191, 192, 199, 198, 548, 549, 556, 555
165, 192, 193, 200, 199, 549, 550, 557, 556
166, 193, 194, 201, 200, 550, 551, 558, 557
167, 194, 195, 202, 201, 551, 552, 559, 558
168, 195, 196, 203, 202, 552, 553, 560, 559
169, 197, 198, 205, 204, 554, 555, 562, 561
170, 198, 199, 206, 205, 555, 556, 563, 562
171, 199, 200, 207, 206, 556, 557, 564, 563
172, 200, 201, 208, 207, 557, 558, 565, 564
173, 201, 202, 209, 208, 558, 559, 566, 565
174, 202, 203, 210, 209, 559, 560, 567, 566
175, 204, 205, 212, 211, 561, 562, 569, 568
176, 205, 206, 213, 212, 562, 563, 570, 569
177, 206, 207, 214, 213, 563, 564, 571, 570
178, 207, 208, 215, 214, 564, 565, 572, 571
179, 208, 209, 216, 215, 565, 566, 573, 572
180, 209, 210, 217, 216, 566, 567, 574, 573
181, 211, 212, 219, 218, 568, 569, 576, 575
182, 212, 213, 220, 219, 569, 570, 577, 576
183, 213, 214, 221, 220, 570, 571, 578, 577
184, 214, 215, 222, 221, 571, 572, 579, 578
185, 215, 216, 223, 222, 572, 573, 580, 579
186, 216, 217, 224, 223, 573, 574, 581, 580
187, 218, 219, 226, 225, 575, 576, 583, 582
188, 219, 220, 227, 226, 576, 577, 584, 583
189, 220, 221, 228, 227, 577, 578, 585, 584
190, 221, 222, 229, 228, 578, 579, 586, 585
191, 222, 223, 230, 229, 579, 580, 587, 586
192, 223, 224, 231, 230, 580, 581, 588, 587
193, 225, 226, 233, 232, 582, 583, 590, 589
194, 226, 227, 234, 233, 583, 584, 591, 590
195, 227, 228, 235, 234, 584, 585, 592, 591
196, 228, 229, 236, 235, 585, 586, 593, 592
197, 229, 230, 237, 236, 586, 587, 594, 593
198, 230, 231, 238, 237, 587, 588, 595, 594
199, 232, 233, 240, 239, 589, 590, 597, 596
200, 233, 234, 241, 240, 590, 591, 598, 597
201, 234, 235, 242, 241, 591, 592, 599, 598
202, 235, 236, 243, 242, 592, 593, 600, 599
203, 236, 237, 244, 243, 593, 594, 601, 600
204, 237, 238, 245, 244, 594, 595, 602, 601
205, 239, 240, 247, 246, 596, 597, 604, 603
206, 240, 241, 248, 247, 597, 598, 605, 604
207, 241, 242, 249, 248, 598, 599, 606, 605
208, 242, 243, 250, 249, 599, 600, 607, 606
209, 243, 244, 251, 250, 600, 601, 608, 607
210, 244, 245, 252, 251, 601, 602, 609, 608
211, 246, 247, 254, 253, 603, 604, 611, 610
212, 247, 248, 255, 254, 604, 605, 612, 611
213, 248, 249, 256, 255, 605, 606, 613, 612
214, 249, 250, 257, 256, 606, 607, 614, 613
215, 250, 251, 258, 257, 607, 608, 615, 614
216, 251, 252, 259, 258, 608, 609, 616, 615
217, 253, 254, 261, 260, 610, 611, 618, 617
218, 254, 255, 262, 261, 611, 612, 619, 618
219, 255, 256, 263, 262, 612, 613, 620, 619
220, 256, 257, 264, 263, 613, 614, 621, 620
221, 257, 258, 265, 264, 614, 615, 622, 621
222, 258, 259, 266, 265, 615, 616, 623, 622
223, 260, 261, 268, 267, 617, 618, 625, 624
224, 261, 262, 269, 268, 618, 619, 626, 625
225, 262, 263, 270, 269, 619, 620, 627, 626
226, 263, 264, 271, 270, 620, 621, 628, 627
227, 264, 265, 272, 271, 621, 622, 629, 628
228, 265, 266, 273, 272, 622, 623, 630, 629
229, 267, 268, 275, 274, 624, 625, 632, 631
230, 268, 269, 276, 275, 625, 626, 633, 632
231, 269, 270, 277, 276, 626, 627, 634, 633
232, 270, 271, 278, 277, 627, 628, 635, 634
233, 271, 272, 279, 278, 628, 629, 636, 635
234, 272, 273, 280, 279, 629, 630, 637, 636
235, 274, 275, 282, 281, 631, 632, 639, 638
236, 275, 276, 283, 282, 632, 633, 640, 639
237, 276, 277, 284, 283, 633, 634, 641, 640
238, 277, 278, 285, 284, 634, 635, 642, 641
239, 278, 279, 286, 285, 635, 636, 643, 642
240, 279, 280, 287, 286, 636, 637, 644, 643
241, 281, 282, 289, 288, 638, 639, 646, 645
242, 282, 283, 290, 289, 639, 640, 647, 646
243, 283, 284, 291, 290, 640, 641, 648, 647
244, 284, 285, 292, 291, 641, 642, 649, 648
245, 285, 286, 293, 292, 642, 643, 650, 649
246, 286, 287, 294, 293, 643, 644, 651, 650
247, 288, 289, 296, 295, 645, 646, 653, 652
248, 289, 290, 297, 296, 646, 647, 654, 653
249, 290, 291, 298, 297, 647, 648, 655, 654
250, 291, 292, 299, 298, 648, 649, 656, 655
251, 292, 293, 300, 299, 649, 650, 657, 656
252, 293, 294, 301, 300, 650, 651, 658, 657
253, 295, 296, 303, 302, 652, 653, 660, 659
254, 296, 297, 304, 303, 653, 654, 661, 660
255, 297, 298, 305, 304, 654, 655, 662, 661
256, 298, 299, 306, 305, 655, 656, 663, 662
257, 299, 300, 307, 306, 656, 657, 664, 663
258, 300, 301, 308, 307, 657, 658, 665, 664
259, 302, 303, 310, 309, 659, 660, 667, 666
260, 303, 304, 311, 310, 660, 661, 668, 667
261, 304, 305, 312, 311, 661, 662, 669, 668
262, 305, 306, 313, 312, 662, 663, 670, 669
263, 306, 307, 314, 313, 663, 664, 671, 670
264, 307, 308, 315, 314, 664, 665, 672, 671
265, 309, 310, 317, 316, 666, 667, 674, 673
266, 310, 311, 318, 317, 667, 668, 675, 674
267, 311, 312, 319, 318, 668, 669, 676, 675
268, 312, 313, 320, 319, 669, 670, 677, 676
269, 313, 314, 321, 320, 670, 671, 678, 677
270, 314, 315, 322, 321, 671, 672, 679, 678
271, 316, 317, 324, 323, 673, 674, 681, 680
272, 317, 318, 325, 324, 674, 675, 682, 681
273, 318, 319, 326, 325, 675, 676, 683, 682
274, 319, 320, 327, 326, 676, 677, 684, 683
275, 320, 321, 328, 327, 677, 678, 685, 684
276, 321, 322, 329, 328, 678, 679, 686, 685
277, 323, 324, 331, 330, 680, 681, 688, 687
278, 324, 325, 332, 331, 681, 682, 689, 688
279, 325, 326, 333, 332, 682, 683, 690, 689
280, 326, 327, 334, 333, 683, 684, 691, 690
281, 327, 328, 335, 334, 684, 685, 692, 691
282, 328, 329, 336, 335, 685, 686, 693, 692
283, 330, 331, 338, 337, 687, 688, 695, 694
284, 331, 332, 339, 338, 688, 689, 696, 695
285, 332, 333, 340, 339, 689, 690, 697, 696
286, 333, 334, 341, 340, 690, 691, 698, 697
287, 334, 335, 342, 341, 691, 692, 699, 698
288, 335, 336, 343, 342, 692, 693, 700, 699
289, 337, 338, 345, 344, 694, 695, 702, 701
290, 338, 339, 346, 345, 695, 696, 703, 702
291, 339, 340, 347, 346, 696, 697, 704, 703
292, 340, 341, 348, 347, 697, 698, 705, 704
293, 341, 342, 349, 348, 698, 699, 706, 705
294, 342, 343, 350, 349, 699, 700, 707, 706
295, 344, 345, 352, 351, 701, 702, 709, 708
296, 345, 346, 353, 352, 702, 703, 710, 709
297, 346, 347, 354, 353, 703, 704, 711, 710
298, 347, 348, 355, 354, 704, 705, 712, 711
299, 348, 349, 356, 355, 705, 706, 713, 712
300, 349, 350, 357, 356, 706, 707, 714, 713
*UEL PROPERTY, ELSET=ESI
1, 8.000000e+09, 3.6000
*NSET, NSET=CONT
1, 7, 8, 14, 15, 21, 22, 28, 29, 35, 36, 42
43, 49, 50, 56, 57, 63, 64, 70, 71, 77, 78, 84
85, 91, 92, 98, 99, 105, 106, 112, 113, 119, 120, 126
127, 133, 134, 140, 141, 147, 148, 154, 155, 161, 162, 168
169, 175, 176, 182, 183, 189, 190, 196, 197, 203, 204, 210
211, 217, 218, 224, 225, 231, 232, 238, 239, 245, 246, 252
253, 259, 260, 266, 267, 273, 274, 280, 281, 287, 288, 294
295, 301, 302, 308, 309, 315, 316, 322, 323, 329, 330, 336
337, 343, 344, 350, 351, 357, 358, 364, 365, 371, 372, 378
379, 385, 386, 392, 393, 399, 400, 406, 407, 413, 414, 420
421, 427, 428, 434, 435, 441, 442, 448, 449, 455, 456, 462
463, 469, 470, 476, 477, 483, 484, 490, 491, 497, 498, 504
505, 511, 512, 518, 519, 525, 526, 532, 533, 539, 540, 546
547, 553, 554, 560, 561, 567, 568, 574, 575, 581, 582, 588
589, 595, 596, 602, 603, 609, 610, 616, 617, 623, 624, 630
631, 637, 638, 644, 645, 651, 652, 658, 659, 665, 666, 672
673, 679, 680, 686, 687, 693, 694, 700, 701, 707, 708, 714
*NSET, NSET=WALL
2, 3, 4, 5, 6, 352, 353, 354, 355, 356, 359, 360
361, 362, 363, 709, 710, 711, 712, 713
*NSET, NSET=NALL, GENERATE
1, 714, 1
*AMPLITUDE, NAME=DOPRAMP, TIME=TOTAL TIME
0.000000e+00, 0.00000000e+00
1.000000e-04, 5.96085666e-01
1.467799e-04, 6.12915430e-01
2.154435e-04, 6.29745194e-01
3.162278e-04, 6.46574957e-01
4.641589e-04, 6.63404721e-01
6.812921e-04, 6.80234485e-01
1.000000e-03, 6.97064249e-01
1.467799e-03, 7.13894013e-01
2.154435e-03, 7.30723777e-01
3.162278e-03, 7.47553541e-01
4.641589e-03, 7.64383305e-01
6.812921e-03, 7.81213069e-01
1.000000e-02, 7.98042833e-01
1.467799e-02, 8.14872597e-01
2.154435e-02, 8.31702361e-01
3.162278e-02, 8.48532125e-01
4.641589e-02, 8.65361889e-01
6.812921e-02, 8.82191652e-01
1.000000e-01, 8.99021416e-01
1.467799e-01, 9.15851180e-01
2.154435e-01, 9.32680944e-01
3.162278e-01, 9.49510708e-01
4.641589e-01, 9.66340472e-01
6.812921e-01, 9.83170236e-01
1.000000e+00, 1.00000000e+00
*STEP, INC=400, UNSYMM=YES
*STATIC
1e-4, 1.0, 1e-9, 0.05
*CONTROLS, PARAMETERS=FIELD
1e-4,,,,,,,1e-4
*BOUNDARY, AMPLITUDE=DOPRAMP
CONT, 1, 1, 2.28027074e+01
CONT, 4, 4, 1.14013537e+01
*BOUNDARY
CONT, 2, 3, 0.
WALL, 4, 4, -10.0000
WALL, 2, 2, 0.
NALL, 3, 3, 0.
*NODE PRINT, NSET=NALL, FREQUENCY=999
U
*END STEP
