*HEADING
ex21 Al line electromigration (Korhonen model UEL)
*USER ELEMENT, NODES=2, TYPE=U1, PROPERTIES=1, COORDINATES=1, VARIABLES=1, UNSYMM
1,2
*NODE
1, 0.0000000000e+00
2, 2.5000000000e-04
3, 5.0000000000e-04
4, 7.5000000000e-04
5, 1.0000000000e-03
6, 1.2500000000e-03
7, 1.5000000000e-03
8, 1.7500000000e-03
9, 2.0000000000e-03
10, 2.2500000000e-03
11, 2.5000000000e-03
12, 2.7500000000e-03
13, 3.0000000000e-03
14, 3.2500000000e-03
15, 3.5000000000e-03
16, 3.7500000000e-03
17, 4.0000000000e-03
18, 4.2500000000e-03
19, 4.5000000000e-03
20, 4.7500000000e-03
21, 5.0000000000e-03
22, 5.2500000000e-03
23, 5.5000000000e-03
24, 5.7500000000e-03
25, 6.0000000000e-03
26, 6.2500000000e-03
27, 6.5000000000e-03
28, 6.7500000000e-03
29, 7.0000000000e-03
30, 7.2500000000e-03
31, 7.5000000000e-03
32, 7.7500000000e-03
33, 8.0000000000e-03
34, 8.2500000000e-03
35, 8.5000000000e-03
36, 8.7500000000e-03
37, 9.0000000000e-03
38, 9.2500000000e-03
39, 9.5000000000e-03
40, 9.7500000000e-03
41, 1.0000000000e-02
42, 1.0250000000e-02
43, 1.0500000000e-02
44, 1.0750000000e-02
45, 1.1000000000e-02
46, 1.1250000000e-02
47, 1.1500000000e-02
48, 1.1750000000e-02
49, 1.2000000000e-02
50, 1.2250000000e-02
51, 1.2500000000e-02
52, 1.2750000000e-02
53, 1.3000000000e-02
54, 1.3250000000e-02
55, 1.3500000000e-02
56, 1.3750000000e-02
57, 1.4000000000e-02
58, 1.4250000000e-02
59, 1.4500000000e-02
60, 1.4750000000e-02
61, 1.5000000000e-02
62, 1.5250000000e-02
63, 1.5500000000e-02
64, 1.5750000000e-02
65, 1.6000000000e-02
66, 1.6250000000e-02
67, 1.6500000000e-02
68, 1.6750000000e-02
69, 1.7000000000e-02
70, 1.7250000000e-02
71, 1.7500000000e-02
72, 1.7750000000e-02
73, 1.8000000000e-02
74, 1.8250000000e-02
75, 1.8500000000e-02
76, 1.8750000000e-02
77, 1.9000000000e-02
78, 1.9250000000e-02
79, 1.9500000000e-02
80, 1.9750000000e-02
81, 2.0000000000e-02
*ELEMENT, TYPE=U1, ELSET=ELINE
1, 1, 2
2, 2, 3
3, 3, 4
4, 4, 5
5, 5, 6
6, 6, 7
7, 7, 8
8, 8, 9
9, 9, 10
10, 10, 11
11, 11, 12
12, 12, 13
13, 13, 14
14, 14, 15
15, 15, 16
16, 16, 17
17, 17, 18
18, 18, 19
19, 19, 20
20, 20, 21
21, 21, 22
22, 22, 23
23, 23, 24
24, 24, 25
25, 25, 26
26, 26, 27
27, 27, 28
28, 28, 29
29, 29, 30
30, 30, 31
31, 31, 32
32, 32, 33
33, 33, 34
34, 34, 35
35, 35, 36
36, 36, 37
37, 37, 38
38, 38, 39
39, 39, 40
40, 40, 41
41, 41, 42
42, 42, 43
43, 43, 44
44, 44, 45
45, 45, 46
46, 46, 47
47, 47, 48
48, 48, 49
49, 49, 50
50, 50, 51
51, 51, 52
52, 52, 53
53, 53, 54
54, 54, 55
55, 55, 56
56, 56, 57
57, 57, 58
58, 58, 59
59, 59, 60
60, 60, 61
61, 61, 62
62, 62, 63
63, 63, 64
64, 64, 65
65, 65, 66
66, 66, 67
67, 67, 68
68, 68, 69
69, 69, 70
70, 70, 71
71, 71, 72
72, 72, 73
73, 73, 74
74, 74, 75
75, 75, 76
76, 76, 77
77, 77, 78
78, 78, 79
79, 79, 80
80, 80, 81
*UEL PROPERTY, ELSET=ELINE
5.000000e-09
*NSET, NSET=NA
1
*NSET, NSET=NC
81
*NSET, NSET=NALL, GENERATE
1, 81, 1
*AMPLITUDE, NAME=INST, TIME=TOTAL TIME
0., 1., 1e9, 1.
*STEP, INC=400, UNSYMM=YES
*STATIC
50., 5000.0, 1., 50.
*BOUNDARY, AMPLITUDE=INST
NA, 1, 1, 9.80000000e-03
NC, 1, 1, 0.
*NODE PRINT, NSET=NALL, FREQUENCY=50
U
*END STEP
*STEP, INC=400, UNSYMM=YES
*STATIC
1e5, 2e6, 1e3, 1e5
*BOUNDARY, AMPLITUDE=INST
NA, 1, 1, 9.80000000e-03
NC, 1, 1, 0.
*END STEP
