*HEADING
ex16 drift-diffusion UEL (Scharfetter-Gummel 1969)
*USER ELEMENT, NODES=2, TYPE=U1, PROPERTIES=2, COORDINATES=1, VARIABLES=1, UNSYMM
1,2,3
*NODE
1, -2.0000000000
2, -1.9800000000
3, -1.9600000000
4, -1.9400000000
5, -1.9200000000
6, -1.9000000000
7, -1.8800000000
8, -1.8600000000
9, -1.8400000000
10, -1.8200000000
11, -1.8000000000
12, -1.7800000000
13, -1.7600000000
14, -1.7400000000
15, -1.7200000000
16, -1.7000000000
17, -1.6800000000
18, -1.6600000000
19, -1.6400000000
20, -1.6200000000
21, -1.6000000000
22, -1.5800000000
23, -1.5600000000
24, -1.5400000000
25, -1.5200000000
26, -1.5000000000
27, -1.4800000000
28, -1.4600000000
29, -1.4400000000
30, -1.4200000000
31, -1.4000000000
32, -1.3800000000
33, -1.3600000000
34, -1.3400000000
35, -1.3200000000
36, -1.3000000000
37, -1.2800000000
38, -1.2600000000
39, -1.2400000000
40, -1.2200000000
41, -1.2000000000
42, -1.1800000000
43, -1.1600000000
44, -1.1400000000
45, -1.1200000000
46, -1.1000000000
47, -1.0800000000
48, -1.0600000000
49, -1.0400000000
50, -1.0200000000
51, -1.0000000000
52, -0.9800000000
53, -0.9600000000
54, -0.9400000000
55, -0.9200000000
56, -0.9000000000
57, -0.8800000000
58, -0.8600000000
59, -0.8400000000
60, -0.8200000000
61, -0.8000000000
62, -0.7800000000
63, -0.7600000000
64, -0.7400000000
65, -0.7200000000
66, -0.7000000000
67, -0.6800000000
68, -0.6600000000
69, -0.6400000000
70, -0.6200000000
71, -0.6000000000
72, -0.5800000000
73, -0.5600000000
74, -0.5400000000
75, -0.5200000000
76, -0.5000000000
77, -0.4800000000
78, -0.4600000000
79, -0.4400000000
80, -0.4200000000
81, -0.4000000000
82, -0.3800000000
83, -0.3600000000
84, -0.3400000000
85, -0.3200000000
86, -0.3000000000
87, -0.2800000000
88, -0.2600000000
89, -0.2400000000
90, -0.2200000000
91, -0.2000000000
92, -0.1800000000
93, -0.1600000000
94, -0.1400000000
95, -0.1200000000
96, -0.1000000000
97, -0.0800000000
98, -0.0600000000
99, -0.0400000000
100, -0.0200000000
101, 0.0000000000
102, 0.0200000000
103, 0.0400000000
104, 0.0600000000
105, 0.0800000000
106, 0.1000000000
107, 0.1200000000
108, 0.1400000000
109, 0.1600000000
110, 0.1800000000
111, 0.2000000000
112, 0.2200000000
113, 0.2400000000
114, 0.2600000000
115, 0.2800000000
116, 0.3000000000
117, 0.3200000000
118, 0.3400000000
119, 0.3600000000
120, 0.3800000000
121, 0.4000000000
122, 0.4200000000
123, 0.4400000000
124, 0.4600000000
125, 0.4800000000
126, 0.5000000000
127, 0.5200000000
128, 0.5400000000
129, 0.5600000000
130, 0.5800000000
131, 0.6000000000
132, 0.6200000000
133, 0.6400000000
134, 0.6600000000
135, 0.6800000000
136, 0.7000000000
137, 0.7200000000
138, 0.7400000000
139, 0.7600000000
140, 0.7800000000
141, 0.8000000000
142, 0.8200000000
143, 0.8400000000
144, 0.8600000000
145, 0.8800000000
146, 0.9000000000
147, 0.9200000000
148, 0.9400000000
149, 0.9600000000
150, 0.9800000000
151, 1.0000000000
152, 1.0200000000
153, 1.0400000000
154, 1.0600000000
155, 1.0800000000
156, 1.1000000000
157, 1.1200000000
158, 1.1400000000
159, 1.1600000000
160, 1.1800000000
161, 1.2000000000
162, 1.2200000000
163, 1.2400000000
164, 1.2600000000
165, 1.2800000000
166, 1.3000000000
167, 1.3200000000
168, 1.3400000000
169, 1.3600000000
170, 1.3800000000
171, 1.4000000000
172, 1.4200000000
173, 1.4400000000
174, 1.4600000000
175, 1.4800000000
176, 1.5000000000
177, 1.5200000000
178, 1.5400000000
179, 1.5600000000
180, 1.5800000000
181, 1.6000000000
182, 1.6200000000
183, 1.6400000000
184, 1.6600000000
185, 1.6800000000
186, 1.7000000000
187, 1.7200000000
188, 1.7400000000
189, 1.7600000000
190, 1.7800000000
191, 1.8000000000
192, 1.8200000000
193, 1.8400000000
194, 1.8600000000
195, 1.8800000000
196, 1.9000000000
197, 1.9200000000
198, 1.9400000000
199, 1.9600000000
200, 1.9800000000
201, 2.0000000000
*ELEMENT, TYPE=U1, ELSET=EALL
1, 1, 2
2, 2, 3
3, 3, 4
4, 4, 5
5, 5, 6
6, 6, 7
7, 7, 8
8, 8, 9
9, 9, 10
10, 10, 11
11, 11, 12
12, 12, 13
13, 13, 14
14, 14, 15
15, 15, 16
16, 16, 17
17, 17, 18
18, 18, 19
19, 19, 20
20, 20, 21
21, 21, 22
22, 22, 23
23, 23, 24
24, 24, 25
25, 25, 26
26, 26, 27
27, 27, 28
28, 28, 29
29, 29, 30
30, 30, 31
31, 31, 32
32, 32, 33
33, 33, 34
34, 34, 35
35, 35, 36
36, 36, 37
37, 37, 38
38, 38, 39
39, 39, 40
40, 40, 41
41, 41, 42
42, 42, 43
43, 43, 44
44, 44, 45
45, 45, 46
46, 46, 47
47, 47, 48
48, 48, 49
49, 49, 50
50, 50, 51
51, 51, 52
52, 52, 53
53, 53, 54
54, 54, 55
55, 55, 56
56, 56, 57
57, 57, 58
58, 58, 59
59, 59, 60
60, 60, 61
61, 61, 62
62, 62, 63
63, 63, 64
64, 64, 65
65, 65, 66
66, 66, 67
67, 67, 68
68, 68, 69
69, 69, 70
70, 70, 71
71, 71, 72
72, 72, 73
73, 73, 74
74, 74, 75
75, 75, 76
76, 76, 77
77, 77, 78
78, 78, 79
79, 79, 80
80, 80, 81
81, 81, 82
82, 82, 83
83, 83, 84
84, 84, 85
85, 85, 86
86, 86, 87
87, 87, 88
88, 88, 89
89, 89, 90
90, 90, 91
91, 91, 92
92, 92, 93
93, 93, 94
94, 94, 95
95, 95, 96
96, 96, 97
97, 97, 98
98, 98, 99
99, 99, 100
100, 100, 101
101, 101, 102
102, 102, 103
103, 103, 104
104, 104, 105
105, 105, 106
106, 106, 107
107, 107, 108
108, 108, 109
109, 109, 110
110, 110, 111
111, 111, 112
112, 112, 113
113, 113, 114
114, 114, 115
115, 115, 116
116, 116, 117
117, 117, 118
118, 118, 119
119, 119, 120
120, 120, 121
121, 121, 122
122, 122, 123
123, 123, 124
124, 124, 125
125, 125, 126
126, 126, 127
127, 127, 128
128, 128, 129
129, 129, 130
130, 130, 131
131, 131, 132
132, 132, 133
133, 133, 134
134, 134, 135
135, 135, 136
136, 136, 137
137, 137, 138
138, 138, 139
139, 139, 140
140, 140, 141
141, 141, 142
142, 142, 143
143, 143, 144
144, 144, 145
145, 145, 146
146, 146, 147
147, 147, 148
148, 148, 149
149, 149, 150
150, 150, 151
151, 151, 152
152, 152, 153
153, 153, 154
154, 154, 155
155, 155, 156
156, 156, 157
157, 157, 158
158, 158, 159
159, 159, 160
160, 160, 161
161, 161, 162
162, 162, 163
163, 163, 164
164, 164, 165
165, 165, 166
166, 166, 167
167, 167, 168
168, 168, 169
169, 169, 170
170, 170, 171
171, 171, 172
172, 172, 173
173, 173, 174
174, 174, 175
175, 175, 176
176, 176, 177
177, 177, 178
178, 178, 179
179, 179, 180
180, 180, 181
181, 181, 182
182, 182, 183
183, 183, 184
184, 184, 185
185, 185, 186
186, 186, 187
187, 187, 188
188, 188, 189
189, 189, 190
190, 190, 191
191, 191, 192
192, 192, 193
193, 193, 194
194, 194, 195
195, 195, 196
196, 196, 197
197, 197, 198
198, 198, 199
199, 199, 200
200, 200, 201
*UEL PROPERTY, ELSET=EALL
100.0, 100.0
*NSET, NSET=NALL, GENERATE
1, 201, 1
*STEP, INC=200, UNSYMM=YES
*STATIC, DIRECT
0.05, 1.0
*CONTROLS, PARAMETERS=FIELD
1e-6, 1e-6,,,,,,
*BOUNDARY
1, 1, 1, -4.605270170991699
1, 2, 2, 0.009999000199947261
1, 3, 3, 100.00999900022748
201, 1, 1, 4.605270170991424
201, 2, 2, 100.00999900019994
201, 3, 3, 0.009999000199950016
*NODE PRINT, NSET=NALL, FREQUENCY=1
U
*END STEP
*STEP, INC=200, UNSYMM=YES
*STATIC, DIRECT
0.1, 1.0
*CONTROLS, PARAMETERS=FIELD
1e-6, 1e-6,,,,,,
*BOUNDARY
1, 1, 1, 5.394729829008301
*NODE PRINT, NSET=NALL, FREQUENCY=1
U
*END STEP
